! TOUCHSTONE file generated by CST MICROWAVE STUDIO
! Date and time: Sat Dec 27 11:41:10 2025
! Project name: msline.cst
! Parameters = {t=0.018; C=0; L=20; Lind=0; R=0; W=20; er=4.6; h=0.8; tangd=0; tangdelta=0.01; ws=1.5}
! Header version: 2024
! Port assignment regex: !\s*Touchstone port\s*([0-9]+)\s*=\s*(CST MWS port|CST DES external port|CST DES block port)\s*(.+)\s* \(\"(.*)\"\)(\s*mode\s*([0-9]+))?.*
! Touchstone port assignment:
! Touchstone port 1 = CST MWS port 1 ("")
! Touchstone port 2 = CST MWS port 2 ("")
# GHz S MA R 50
0                   0.0006397231             180        0.9978302              -0        0.9978302              -0     0.0006397231   -1.001791e-05
0.006               0.0006452161        -172.827        0.9978301      -0.2774321          0.99783      -0.2774321      0.000645216       -7.727843
0.012               0.0006614214       -165.9008        0.9978299      -0.5548642        0.9978298      -0.5548642     0.0006614214       -15.20896
0.018               0.0006875824       -159.4224        0.9978296      -0.8322964        0.9978295      -0.8322964     0.0006875823       -22.24221
0.024               0.0007226193        -153.521         0.997829       -1.109728         0.997829       -1.109729     0.0007226194       -28.69844
0.03                0.0007653151       -148.2523        0.9978285        -1.38716        0.9978285        -1.38716     0.0007653151       -34.52197
0.036               0.0008144668       -143.6141        0.9978276       -1.664592        0.9978276       -1.664592     0.0008144668       -39.71505
0.042               0.0008689813       -139.5671        0.9978268       -1.942024        0.9978267       -1.942024     0.0008689813       -44.31696
0.048               0.0009279151       -136.0532        0.9978257       -2.219456        0.9978257       -2.219456     0.0009279151        -48.3857
0.054               0.0009904811       -133.0086        0.9978246       -2.496887        0.9978246       -2.496888     0.0009904812       -51.98512
0.06                 0.001056035       -130.3711        0.9978233       -2.774319        0.9978232       -2.774319      0.001056035       -55.17758
0.066                0.001124057       -128.0837        0.9978218        -3.05175        0.9978218        -3.05175      0.001124057       -58.01983
0.072                0.001194125       -126.0964        0.9978203       -3.329181        0.9978202       -3.329182      0.001194125       -60.56192
0.078                0.001265903       -124.3664        0.9978185       -3.606612        0.9978184       -3.606613      0.001265903       -62.84682
0.084                0.001339118        -122.857        0.9978167       -3.884043        0.9978166       -3.884043      0.001339117       -64.91106
0.09                 0.001413547       -121.5374        0.9978147       -4.161473        0.9978147       -4.161473      0.001413547       -66.78554
0.096                 0.00148901       -120.3815        0.9978125       -4.438903        0.9978125       -4.438904       0.00148901       -68.49629
0.102                 0.00156536       -119.3676        0.9978103       -4.716333        0.9978102       -4.716333       0.00156536        -70.0651
0.108                0.001642476        -118.477        0.9978079       -4.993763        0.9978079       -4.993763      0.001642476       -71.51051
0.114                0.001720255       -117.6943        0.9978053       -5.271193        0.9978052       -5.271193      0.001720255        -72.8481
0.12                 0.001798614       -117.0061        0.9978026       -5.548622        0.9978025       -5.548622      0.001798614       -74.09109
0.126                0.001877483       -116.4013        0.9977999        -5.82605        0.9977999       -5.826049      0.001877483       -75.25077
0.132                0.001956801       -115.8702        0.9977969       -6.103478        0.9977969       -6.103478      0.001956801       -76.33677
0.138                0.002036518       -115.4045        0.9977938       -6.380908        0.9977936       -6.380909      0.002036518       -77.35734
0.144                0.002116592       -114.9971        0.9977905       -6.658335        0.9977904       -6.658336      0.002116592       -78.31958
0.15                 0.002196984       -114.6418        0.9977872       -6.935763        0.9977871       -6.935763      0.002196984       -79.22971
0.156                0.002277664       -114.3334        0.9977837       -7.213189        0.9977837       -7.213189      0.002277664       -80.09302
0.162                0.002358604        -114.067          0.99778       -7.490616          0.99778       -7.490617      0.002358604        -80.9142
0.168                0.002439779       -113.8387        0.9977763       -7.768043        0.9977762       -7.768044      0.002439779       -81.69735
0.174                0.002521171        -113.645        0.9977723       -8.045468        0.9977723       -8.045468      0.002521171       -82.44598
0.18                 0.002602759       -113.4825        0.9977683       -8.322893        0.9977683       -8.322893      0.002602759       -83.16333
0.186                0.002684529       -113.3485        0.9977642       -8.600318        0.9977642       -8.600318      0.002684529       -83.85217
0.192                0.002766466       -113.2406        0.9977597       -8.877742        0.9977597       -8.877744      0.002766466       -84.51494
0.198                0.002848557       -113.1565        0.9977554       -9.155166        0.9977554       -9.155166      0.002848557       -85.15388
0.204                0.002930793       -113.0942        0.9977507        -9.43259        0.9977507        -9.43259      0.002930793       -85.77096
0.21                 0.003013163       -113.0521         0.997746       -9.710012         0.997746       -9.710013      0.003013163       -86.36792
0.216                0.003095658       -113.0285        0.9977411       -9.987436         0.997741       -9.987436      0.003095658       -86.94635
0.222                0.003178271        -113.022        0.9977361       -10.26486        0.9977361       -10.26486      0.003178271       -87.50767
0.228                0.003260996       -113.0314         0.997731       -10.54228        0.9977309       -10.54228      0.003260996       -88.05317
0.234                0.003343825       -113.0554        0.9977257        -10.8197        0.9977256        -10.8197      0.003343825       -88.58398
0.24                 0.003426753        -113.093        0.9977203       -11.09712        0.9977202       -11.09712      0.003426753       -89.10122
0.246                0.003509776       -113.1433        0.9977147       -11.37454        0.9977146       -11.37454      0.003509776       -89.60575
0.252                0.003592889       -113.2054        0.9977091       -11.65196         0.997709       -11.65196      0.003592889       -90.09851
0.258                0.003676087       -113.2785        0.9977032       -11.92937        0.9977031       -11.92938      0.003676087       -90.58026
0.264                0.003759368       -113.3618        0.9976972       -12.20679        0.9976971       -12.20679      0.003759368       -91.05173
0.27                 0.003842728       -113.4548        0.9976912       -12.48421        0.9976912       -12.48421      0.003842728       -91.51359
0.276                0.003926163       -113.5568         0.997685       -12.76162        0.9976849       -12.76163      0.003926163       -91.96643
0.282                0.004009671       -113.6672        0.9976786       -13.03904        0.9976786       -13.03904      0.004009671       -92.41083
0.288                0.004093251       -113.7856        0.9976721       -13.31645        0.9976721       -13.31645      0.004093251       -92.84731
0.294                  0.0041769       -113.9114        0.9976655       -13.59387        0.9976655       -13.59387        0.0041769       -93.27632
0.3                  0.004260614       -114.0443        0.9976587       -13.87128        0.9976587       -13.87128      0.004260614       -93.69831
0.306                0.004344395       -114.1837        0.9976518       -14.14869        0.9976518       -14.14869      0.004344395       -94.11366
0.312                0.004428237       -114.3294        0.9976448        -14.4261        0.9976448        -14.4261      0.004428237       -94.52278
0.318                0.004512142        -114.481        0.9976375       -14.70351        0.9976375       -14.70351      0.004512142       -94.92601
0.324                0.004596107       -114.6382        0.9976302       -14.98093        0.9976302       -14.98093      0.004596107       -95.32367
0.33                 0.004680132       -114.8006        0.9976228       -15.25833        0.9976227       -15.25834      0.004680131       -95.71604
0.336                0.004764214       -114.9681        0.9976153       -15.53574        0.9976153       -15.53574      0.004764214       -96.10343
0.342                0.004848354       -115.1402        0.9976075       -15.81315        0.9976075       -15.81315      0.004848353       -96.48608
0.348                0.004932549       -115.3169        0.9975997       -16.09055        0.9975997       -16.09055      0.004932549       -96.86422
0.354                0.005016801       -115.4978        0.9975917       -16.36796        0.9975917       -16.36796      0.005016801       -97.23812
0.36                 0.005101106       -115.6828        0.9975835       -16.64536        0.9975835       -16.64536      0.005101106       -97.60798
0.366                0.005185466       -115.8716        0.9975753       -16.92277        0.9975753       -16.92277      0.005185466       -97.97396
0.372                0.005269879        -116.064        0.9975669       -17.20017        0.9975669       -17.20017      0.005269879       -98.33629
0.378                0.005354345         -116.26        0.9975584       -17.47757        0.9975583       -17.47757      0.005354346       -98.69512
0.384                0.005438863       -116.4593        0.9975498       -17.75497        0.9975498       -17.75497      0.005438863       -99.05065
0.39                 0.005523434       -116.6618        0.9975409       -18.03237        0.9975409       -18.03238      0.005523434       -99.40298
0.396                0.005608056       -116.8672         0.997532       -18.30977         0.997532       -18.30977      0.005608056        -99.7523
0.402                0.005692729       -117.0756        0.9975231       -18.58717        0.9975231       -18.58717      0.005692728       -100.0987
0.408                0.005777453       -117.2868        0.9975138       -18.86456        0.9975138       -18.86456      0.005777453       -100.4424
0.414                0.005862227       -117.5005        0.9975045       -19.14196        0.9975045       -19.14196      0.005862228       -100.7834
0.42                 0.005947053       -117.7168         0.997495       -19.41936         0.997495       -19.41936      0.005947053       -101.1219
0.426                0.006031929       -117.9355        0.9974855       -19.69675        0.9974854       -19.69675      0.006031929        -101.458
0.432                0.006116854       -118.1565        0.9974758       -19.97414        0.9974757       -19.97414      0.006116854       -101.7918
0.438                 0.00620183       -118.3797        0.9974659       -20.25153        0.9974659       -20.25154      0.006201829       -102.1233
0.444                0.006286855       -118.6051         0.997456       -20.52892         0.997456       -20.52892      0.006286855       -102.4528
0.45                 0.006371931       -118.8325        0.9974458       -20.80631        0.9974458       -20.80631      0.006371932       -102.7802
0.456                0.006457056       -119.0618        0.9974356        -21.0837        0.9974355        -21.0837      0.006457056       -103.1056
0.462                0.006542232        -119.293        0.9974252       -21.36108        0.9974252       -21.36108      0.006542232       -103.4292
0.468                0.006627456       -119.5259        0.9974147       -21.63847        0.9974147       -21.63847      0.006627456        -103.751
0.474                0.006712731       -119.7607         0.997404       -21.91586         0.997404       -21.91586      0.006712731       -104.0711
0.48                 0.006798056        -119.997        0.9973933       -22.19324        0.9973932       -22.19324      0.006798056       -104.3895
0.486                0.006883429        -120.235        0.9973823       -22.47062        0.9973823       -22.47062      0.006883429       -104.7062
0.492                0.006968853       -120.4745        0.9973713         -22.748        0.9973713         -22.748      0.006968853       -105.0215
0.498                0.007054327       -120.7154        0.9973602       -23.02538        0.9973601       -23.02538      0.007054326       -105.3353
0.504                0.007139851       -120.9578        0.9973489       -23.30276        0.9973489       -23.30276      0.007139851       -105.6477
0.51                 0.007225423       -121.2016        0.9973375       -23.58013        0.9973375       -23.58013      0.007225423       -105.9587
0.516                0.007311047       -121.4466        0.9973259       -23.85751        0.9973258       -23.85751      0.007311047       -106.2684
0.522                 0.00739672       -121.6929        0.9973143       -24.13488        0.9973143       -24.13488      0.007396721       -106.5769
0.528                0.007482444       -121.9404        0.9973024       -24.41226        0.9973024       -24.41226      0.007482444       -106.8841
0.534                0.007568219       -122.1892        0.9972905       -24.68963        0.9972906       -24.68963      0.007568219       -107.1901
0.54                 0.007654043        -122.439        0.9972784         -24.967        0.9972783         -24.967      0.007654042        -107.495
0.546                0.007739918       -122.6899        0.9972662       -25.24437        0.9972661       -25.24437      0.007739918       -107.7988
0.552                0.007825842       -122.9419        0.9972539       -25.52173        0.9972539       -25.52173      0.007825842       -108.1016
0.558                0.007911819       -123.1949        0.9972414        -25.7991        0.9972413       -25.79911      0.007911819       -108.4033
0.564                0.007997846       -123.4488        0.9972288       -26.07647        0.9972288       -26.07647      0.007997845       -108.7041
0.57                 0.008083924       -123.7037        0.9972162       -26.35383        0.9972162       -26.35383      0.008083923       -109.0039
0.576                0.008170053       -123.9596        0.9972033       -26.63119        0.9972033       -26.63119      0.008170052       -109.3028
0.582                0.008256233       -124.2162        0.9971903       -26.90855        0.9971903       -26.90855      0.008256233       -109.6009
0.588                0.008342465       -124.4738        0.9971772       -27.18591        0.9971772       -27.18591      0.008342465        -109.898
0.594                0.008428748       -124.7321         0.997164       -27.46327        0.9971639       -27.46327      0.008428748       -110.1944
0.6                  0.008515083       -124.9913        0.9971505       -27.74063        0.9971505       -27.74063      0.008515083         -110.49
0.606                0.008601469       -125.2512        0.9971372       -28.01798        0.9971372       -28.01798      0.008601469       -110.7847
0.612                0.008687908       -125.5119        0.9971236       -28.29533        0.9971236       -28.29533      0.008687908       -111.0788
0.618                0.008774398       -125.7732        0.9971098       -28.57268        0.9971098       -28.57268      0.008774398       -111.3721
0.624                 0.00886094       -126.0353        0.9970959       -28.85003        0.9970958       -28.85003       0.00886094       -111.6648
0.63                 0.008947536        -126.298         0.997082       -29.12738        0.9970819       -29.12738      0.008947536       -111.9568
0.636                0.009034182       -126.5614        0.9970678       -29.40473        0.9970677       -29.40473      0.009034182       -112.2481
0.642                0.009120883       -126.8253        0.9970536       -29.68207        0.9970535       -29.68207      0.009120882       -112.5388
0.648                0.009207634       -127.0899        0.9970391       -29.95942        0.9970391       -29.95942      0.009207635       -112.8289
0.654                0.009294439       -127.3551        0.9970247       -30.23676        0.9970246       -30.23676      0.009294439       -113.1184
0.66                 0.009381297       -127.6208        0.9970101        -30.5141        0.9970101        -30.5141      0.009381297       -113.4074
0.666                0.009468208       -127.8871        0.9969954       -30.79143        0.9969954       -30.79143      0.009468209       -113.6958
0.672                0.009555172       -128.1539        0.9969804       -31.06877        0.9969804       -31.06878      0.009555172       -113.9837
0.678                0.009642189       -128.4212        0.9969655       -31.34611        0.9969654       -31.34611       0.00964219        -114.271
0.684                0.009729261        -128.689        0.9969503       -31.62344        0.9969502       -31.62344       0.00972926       -114.5579
0.69                 0.009816385       -128.9573        0.9969351       -31.90077         0.996935       -31.90078      0.009816385       -114.8443
0.696                0.009903562        -129.226        0.9969198        -32.1781        0.9969198        -32.1781      0.009903562       -115.1302
0.702                0.009990794       -129.4952        0.9969043       -32.45543        0.9969042       -32.45543      0.009990793       -115.4157
0.708                 0.01007808       -129.7647        0.9968886       -32.73276        0.9968885       -32.73276       0.01007808       -115.7008
0.714                 0.01016542       -130.0348         0.996873       -33.01008         0.996873       -33.01008       0.01016542       -115.9854
0.72                  0.01025281       -130.3052        0.9968571        -33.2874        0.9968571        -33.2874       0.01025281       -116.2696
0.726                 0.01034026        -130.576         0.996841       -33.56473         0.996841       -33.56473       0.01034026       -116.5535
0.732                 0.01042776       -130.8471         0.996825       -33.84204        0.9968251       -33.84204       0.01042776        -116.837
0.738                 0.01051532       -131.1187        0.9968087       -34.11936        0.9968087       -34.11937       0.01051532         -117.12
0.744                 0.01060292       -131.3906        0.9967925       -34.39668        0.9967924       -34.39667       0.01060292       -117.4028
0.75                  0.01069059       -131.6628        0.9967759       -34.67399        0.9967759       -34.67399       0.01069059       -117.6852
0.756                 0.01077831       -131.9353        0.9967594        -34.9513        0.9967593        -34.9513       0.01077831       -117.9673
0.762                 0.01086608       -132.2082        0.9967426       -35.22862        0.9967426       -35.22862       0.01086608        -118.249
0.768                 0.01095391       -132.4814        0.9967257       -35.50592        0.9967257       -35.50593       0.01095391       -118.5305
0.774                 0.01104179       -132.7548        0.9967088       -35.78323        0.9967088       -35.78323       0.01104179       -118.8116
0.78                  0.01112973       -133.0286        0.9966918       -36.06054        0.9966918       -36.06054       0.01112973       -119.0925
0.786                 0.01121772       -133.3026        0.9966745       -36.33784        0.9966745       -36.33784       0.01121772       -119.3731
0.792                 0.01130576       -133.5769        0.9966573       -36.61514        0.9966573       -36.61514       0.01130576       -119.6534
0.798                 0.01139387       -133.8514        0.9966398       -36.89244        0.9966398       -36.89244       0.01139386       -119.9334
0.804                 0.01148202       -134.1262        0.9966222       -37.16973        0.9966223       -37.16974       0.01148202       -120.2132
0.81                  0.01157023       -134.4013        0.9966045       -37.44704        0.9966045       -37.44704       0.01157023       -120.4928
0.816                  0.0116585       -134.6765        0.9965868       -37.72432        0.9965868       -37.72432        0.0116585       -120.7721
0.822                 0.01174682        -134.952        0.9965688       -38.00162        0.9965688       -38.00162       0.01174682       -121.0512
0.828                 0.01183519       -135.2277        0.9965508        -38.2789        0.9965508        -38.2789       0.01183519       -121.3301
0.834                 0.01192362       -135.5036        0.9965327       -38.55619        0.9965327       -38.55619       0.01192362       -121.6088
0.84                  0.01201211       -135.7797        0.9965143       -38.83348        0.9965143       -38.83348       0.01201211       -121.8872
0.846                 0.01210065        -136.056         0.996496       -39.11076         0.996496       -39.11076       0.01210065       -122.1655
0.852                 0.01218924       -136.3325        0.9964775       -39.38804        0.9964775       -39.38804       0.01218924       -122.4436
0.858                  0.0122779       -136.6091        0.9964589       -39.66532        0.9964589       -39.66532        0.0122779       -122.7215
0.864                  0.0123666       -136.8859        0.9964402        -39.9426        0.9964401        -39.9426        0.0123666       -122.9993
0.87                  0.01245536       -137.1629        0.9964212       -40.21988        0.9964213       -40.21988       0.01245536       -123.2768
0.876                 0.01254417       -137.4401        0.9964023       -40.49715        0.9964022       -40.49715       0.01254417       -123.5542
0.882                 0.01263304       -137.7173        0.9963831       -40.77442         0.996383       -40.77442       0.01263304       -123.8315
0.888                 0.01272196       -137.9948         0.996364       -41.05169        0.9963639       -41.05168       0.01272197       -124.1086
0.894                 0.01281094       -138.2723        0.9963447       -41.32895        0.9963447       -41.32895       0.01281094       -124.3856
0.9                   0.01289997         -138.55        0.9963253       -41.60622        0.9963253       -41.60622       0.01289997       -124.6624
0.906                 0.01298906       -138.8279        0.9963057       -41.88348        0.9963057       -41.88348       0.01298906       -124.9391
0.912                  0.0130782       -139.1058         0.996286       -42.16074        0.9962859       -42.16074        0.0130782       -125.2157
0.918                  0.0131674       -139.3839        0.9962663         -42.438        0.9962663       -42.43799        0.0131674       -125.4921
0.924                 0.01325665        -139.662        0.9962464       -42.71526        0.9962464       -42.71526       0.01325665       -125.7685
0.93                  0.01334595       -139.9403        0.9962263       -42.99251        0.9962262       -42.99251       0.01334595       -126.0447
0.936                 0.01343531       -140.2187        0.9962063       -43.26976        0.9962062       -43.26976       0.01343531       -126.3208
0.942                 0.01352472       -140.4972         0.996186       -43.54701        0.9961859       -43.54701       0.01352472       -126.5969
0.948                 0.01361418       -140.7758        0.9961657       -43.82425        0.9961657       -43.82425       0.01361418       -126.8728
0.954                  0.0137037       -141.0544        0.9961453        -44.1015        0.9961453        -44.1015        0.0137037       -127.1486
0.96                  0.01379327       -141.3331        0.9961246       -44.37875        0.9961245       -44.37875       0.01379327       -127.4244
0.966                  0.0138829       -141.6119        0.9961039       -44.65599        0.9961038       -44.65599        0.0138829          -127.7
0.972                 0.01397258       -141.8908        0.9960832       -44.93322        0.9960832       -44.93322       0.01397258       -127.9756
0.978                 0.01406231       -142.1698        0.9960622       -45.21046        0.9960622       -45.21046       0.01406231       -128.2511
0.984                  0.0141521       -142.4488        0.9960412        -45.4877        0.9960412        -45.4877        0.0141521       -128.5266
0.99                  0.01424193       -142.7279        0.9960201       -45.76493        0.9960201       -45.76493       0.01424193        -128.802
0.996                 0.01433182        -143.007        0.9959989       -46.04215        0.9959989       -46.04215       0.01433182       -129.0773
1.002                 0.01442177       -143.2862        0.9959775       -46.31938        0.9959775       -46.31938       0.01442177       -129.3526
1.008                 0.01451176       -143.5654        0.9959562        -46.5966        0.9959562        -46.5966       0.01451176       -129.6278
1.014                 0.01460181       -143.8447        0.9959346       -46.87383        0.9959346       -46.87383       0.01460181        -129.903
1.02                  0.01469191        -144.124        0.9959129       -47.15104        0.9959129       -47.15104       0.01469191       -130.1781
1.026                 0.01478206       -144.4034        0.9958911       -47.42826         0.995891       -47.42826       0.01478206       -130.4532
1.032                 0.01487226       -144.6827        0.9958693       -47.70548        0.9958693       -47.70548       0.01487226       -130.7282
1.038                 0.01496251       -144.9622        0.9958473       -47.98269        0.9958474       -47.98269       0.01496252       -131.0032
1.044                 0.01505282       -145.2416        0.9958251       -48.25991         0.995825       -48.25991       0.01505282       -131.2782
1.05                  0.01514317       -145.5211         0.995803       -48.53711         0.995803       -48.53711       0.01514317       -131.5531
1.056                 0.01523358       -145.8006        0.9957806       -48.81432        0.9957806       -48.81432       0.01523358        -131.828
1.062                 0.01532403       -146.0801        0.9957582       -49.09152        0.9957582       -49.09152       0.01532403       -132.1029
1.068                 0.01541454       -146.3596        0.9957356       -49.36872        0.9957356       -49.36873       0.01541454       -132.3778
1.074                 0.01550509       -146.6392         0.995713       -49.64592         0.995713       -49.64592       0.01550509       -132.6527
1.08                   0.0155957       -146.9187        0.9956903       -49.92312        0.9956903       -49.92312        0.0155957       -132.9275
1.086                 0.01568635       -147.1983        0.9956674       -50.20031        0.9956673       -50.20031       0.01568635       -133.2024
1.092                 0.01577705       -147.4778        0.9956444       -50.47751        0.9956444       -50.47751       0.01577705       -133.4772
1.098                  0.0158678       -147.7574        0.9956215       -50.75469        0.9956214       -50.75469        0.0158678        -133.752
1.104                  0.0159586        -148.037        0.9955983       -51.03187        0.9955982       -51.03187       0.01595861       -134.0268
1.11                  0.01604945       -148.3165         0.995575       -51.30906         0.995575       -51.30906       0.01604945       -134.3016
1.116                 0.01614035       -148.5961        0.9955517       -51.58624        0.9955517       -51.58624       0.01614035       -134.5764
1.122                 0.01623129       -148.8756        0.9955282       -51.86342        0.9955281       -51.86342       0.01623129       -134.8512
1.128                 0.01632228       -149.1551        0.9955047       -52.14059        0.9955047       -52.14059       0.01632228       -135.1261
1.134                 0.01641331       -149.4347        0.9954809       -52.41777        0.9954809       -52.41778       0.01641332       -135.4009
1.14                   0.0165044       -149.7142        0.9954572       -52.69494        0.9954572       -52.69494        0.0165044       -135.6757
1.146                 0.01659553       -149.9936        0.9954333       -52.97211        0.9954333       -52.97211       0.01659553       -135.9506
1.152                  0.0166867       -150.2731        0.9954093       -53.24928        0.9954093       -53.24928        0.0166867       -136.2255
1.158                 0.01677792       -150.5525        0.9953853       -53.52644        0.9953853       -53.52644       0.01677792       -136.5003
1.164                 0.01686918        -150.832        0.9953612       -53.80359        0.9953612       -53.80359       0.01686918       -136.7752
1.17                  0.01696049       -151.1114        0.9953369       -54.08076        0.9953369       -54.08076       0.01696049       -137.0502
1.176                 0.01705184       -151.3907        0.9953125       -54.35791        0.9953124       -54.35791       0.01705185       -137.3251
1.182                 0.01714324         -151.67        0.9952882       -54.63508        0.9952881       -54.63507       0.01714324       -137.6001
1.188                 0.01723468       -151.9493        0.9952635       -54.91222        0.9952635       -54.91221       0.01723468       -137.8751
1.194                 0.01732617       -152.2286        0.9952388       -55.18936        0.9952388       -55.18935       0.01732617       -138.1501
1.2                   0.01741769       -152.5078        0.9952141       -55.46653         0.995214       -55.46652       0.01741769       -138.4252
1.206                 0.01750926        -152.787        0.9951892       -55.74364        0.9951893       -55.74364       0.01750926       -138.7003
1.212                 0.01760087       -153.0662        0.9951643       -56.02079        0.9951643       -56.02079       0.01760087       -138.9754
1.218                 0.01769251       -153.3453        0.9951392       -56.29793        0.9951393       -56.29792       0.01769251       -139.2506
1.224                 0.01778421       -153.6243        0.9951141       -56.57507        0.9951142       -56.57506       0.01778421       -139.5258
1.23                  0.01787594       -153.9034        0.9950888       -56.85221        0.9950889       -56.85221       0.01787594       -139.8011
1.236                 0.01796771       -154.1823        0.9950635       -57.12932        0.9950635       -57.12932       0.01796771       -140.0763
1.242                 0.01805952       -154.4613        0.9950381       -57.40647        0.9950381       -57.40646       0.01805952       -140.3517
1.248                 0.01815137       -154.7401        0.9950126       -57.68358        0.9950126       -57.68358       0.01815137        -140.627
1.254                 0.01824325       -155.0189        0.9949869        -57.9607         0.994987       -57.96069       0.01824325       -140.9024
1.26                  0.01833518       -155.2977        0.9949612       -58.23781        0.9949612       -58.23781       0.01833518       -141.1779
1.266                 0.01842714       -155.5764        0.9949354       -58.51495        0.9949355       -58.51495       0.01842714       -141.4535
1.272                 0.01851914       -155.8551        0.9949095       -58.79204        0.9949095       -58.79203       0.01851914        -141.729
1.278                 0.01861118       -156.1337        0.9948835       -59.06915        0.9948835       -59.06915       0.01861118       -142.0046
1.284                 0.01870325       -156.4122        0.9948574       -59.34627        0.9948575       -59.34627       0.01870325       -142.2803
1.29                  0.01879535       -156.6907        0.9948312       -59.62338        0.9948312       -59.62338       0.01879536        -142.556
1.296                  0.0188875       -156.9691        0.9948049       -59.90047        0.9948049       -59.90047        0.0188875       -142.8318
1.302                 0.01897967       -157.2475        0.9947785       -60.17758        0.9947785       -60.17758       0.01897967       -143.1077
1.308                 0.01907188       -157.5258        0.9947521       -60.45467         0.994752       -60.45467       0.01907188       -143.3835
1.314                 0.01916412        -157.804        0.9947255       -60.73178        0.9947255       -60.73178       0.01916412       -143.6595
1.32                  0.01925639       -158.0822        0.9946989       -61.00887        0.9946989       -61.00887        0.0192564       -143.9356
1.326                  0.0193487       -158.3603        0.9946721       -61.28593        0.9946721       -61.28593        0.0193487       -144.2116
1.332                 0.01944104       -158.6383        0.9946454       -61.56305        0.9946453       -61.56304       0.01944104       -144.4878
1.338                 0.01953341       -158.9163        0.9946185       -61.84011        0.9946185        -61.8401       0.01953341       -144.7639
1.344                  0.0196258       -159.1942        0.9945915       -62.11722        0.9945915       -62.11722        0.0196258       -145.0403
1.35                  0.01971823        -159.472        0.9945644       -62.39428        0.9945643       -62.39428       0.01971823       -145.3166
1.356                 0.01981069       -159.7497        0.9945372       -62.67134        0.9945372       -62.67134       0.01981069        -145.593
1.362                 0.01990317       -160.0274          0.99451       -62.94843        0.9945099       -62.94842       0.01990317       -145.8695
1.368                 0.01999568        -160.305        0.9944826       -63.22549        0.9944826       -63.22548       0.01999568        -146.146
1.374                 0.02008822       -160.5825        0.9944552       -63.50255        0.9944551       -63.50254       0.02008822       -146.4226
1.38                  0.02018079       -160.8599        0.9944277       -63.77963        0.9944277       -63.77963       0.02018079       -146.6994
1.386                 0.02027338       -161.1373        0.9944001       -64.05669        0.9944001       -64.05669       0.02027338       -146.9761
1.392                   0.020366       -161.4145        0.9943724       -64.33375        0.9943724       -64.33375         0.020366        -147.253
1.398                 0.02045864       -161.6917        0.9943446       -64.61081        0.9943445       -64.61081       0.02045864       -147.5299
1.404                  0.0205513       -161.9689        0.9943167       -64.88787        0.9943167       -64.88787        0.0205513       -147.8069
1.41                  0.02064399       -162.2459        0.9942888       -65.16491        0.9942888        -65.1649       0.02064399       -148.0839
1.416                  0.0207367       -162.5228        0.9942608       -65.44194        0.9942608       -65.44194       0.02073669        -148.361
1.422                 0.02082943       -162.7997        0.9942326       -65.71902        0.9942326       -65.71902       0.02082943       -148.6383
1.428                 0.02092218       -163.0765        0.9942045       -65.99606        0.9942044       -65.99606       0.02092218       -148.9156
1.434                 0.02101495       -163.3532        0.9941762       -66.27309        0.9941762       -66.27309       0.02101495        -149.193
1.44                  0.02110774       -163.6298        0.9941479       -66.55012        0.9941479       -66.55012       0.02110774       -149.4704
1.446                 0.02120055       -163.9063        0.9941195       -66.82716        0.9941196       -66.82716       0.02120055        -149.748
1.452                 0.02129337       -164.1828         0.994091       -67.10419         0.994091       -67.10419       0.02129338       -150.0256
1.458                 0.02138622       -164.4591        0.9940624       -67.38122        0.9940623       -67.38122       0.02138622       -150.3033
1.464                 0.02147907       -164.7354        0.9940337       -67.65822        0.9940337       -67.65823       0.02147907       -150.5811
1.47                  0.02157195       -165.0116        0.9940051       -67.93526        0.9940051       -67.93526       0.02157196        -150.859
1.476                 0.02166484       -165.2876        0.9939761       -68.21226        0.9939761       -68.21226       0.02166484       -151.1369
1.482                 0.02175775       -165.5636        0.9939473       -68.48932        0.9939473       -68.48932       0.02175775        -151.415
1.488                 0.02185066       -165.8395        0.9939182       -68.76632        0.9939182       -68.76633       0.02185066       -151.6931
1.494                 0.02194359       -166.1153        0.9938892       -69.04333        0.9938893       -69.04333       0.02194359       -151.9713
1.5                   0.02203653        -166.391        0.9938601       -69.32034          0.99386       -69.32034       0.02203653       -152.2496
1.506                 0.02212948       -166.6667        0.9938309       -69.59734        0.9938308       -69.59734       0.02212948        -152.528
1.512                 0.02222245       -166.9422        0.9938016       -69.87435        0.9938016       -69.87435       0.02222245       -152.8065
1.518                 0.02231542       -167.2176        0.9937722       -70.15133        0.9937723       -70.15132       0.02231542        -153.085
1.524                  0.0224084       -167.4929        0.9937428       -70.42833        0.9937427       -70.42833        0.0224084       -153.3637
1.53                  0.02250139       -167.7682        0.9937132       -70.70531        0.9937132       -70.70531       0.02250138       -153.6424
1.536                 0.02259438       -168.0433        0.9936837       -70.98231        0.9936837       -70.98231       0.02259438       -153.9213
1.542                 0.02268738       -168.3184        0.9936541       -71.25929        0.9936541       -71.25929       0.02268738       -154.2002
1.548                 0.02278038       -168.5933        0.9936243       -71.53627        0.9936243       -71.53627       0.02278038       -154.4792
1.554                 0.02287339       -168.8682        0.9935946        -71.8133        0.9935945        -71.8133       0.02287339       -154.7584
1.56                   0.0229664       -169.1429        0.9935647       -72.09025        0.9935647       -72.09025        0.0229664       -155.0376
1.566                 0.02305941       -169.4176        0.9935347       -72.36723        0.9935347       -72.36723       0.02305941       -155.3169
1.572                 0.02315243       -169.6921        0.9935047       -72.64418        0.9935047       -72.64418       0.02315243       -155.5962
1.578                 0.02324544       -169.9666        0.9934746       -72.92116        0.9934746       -72.92116       0.02324544       -155.8757
1.584                 0.02333845       -170.2409        0.9934444       -73.19813        0.9934444       -73.19814       0.02333845       -156.1553
1.59                  0.02343147       -170.5152        0.9934142       -73.47508        0.9934142       -73.47509       0.02343147        -156.435
1.596                 0.02352448       -170.7893        0.9933839       -73.75206        0.9933839       -73.75206       0.02352448       -156.7148
1.602                 0.02361748       -171.0634        0.9933536       -74.02901        0.9933536       -74.02901       0.02361748       -156.9947
1.608                 0.02371049       -171.3373        0.9933231       -74.30599        0.9933231       -74.30599       0.02371049       -157.2747
1.614                 0.02380348       -171.6111        0.9932926       -74.58294        0.9932926       -74.58294       0.02380349       -157.5547
1.62                  0.02389648       -171.8849        0.9932621       -74.85989        0.9932621       -74.85989       0.02389647       -157.8349
1.626                 0.02398946       -172.1585        0.9932315       -75.13684        0.9932315       -75.13684       0.02398946       -158.1152
1.632                 0.02408243       -172.4321        0.9932008       -75.41379        0.9932008        -75.4138       0.02408243       -158.3955
1.638                  0.0241754       -172.7055          0.99317       -75.69072          0.99317       -75.69072        0.0241754        -158.676
1.644                 0.02426835       -172.9788        0.9931392       -75.96764        0.9931391       -75.96764       0.02426836       -158.9565
1.65                   0.0243613        -173.252        0.9931083       -76.24459        0.9931083       -76.24459        0.0243613       -159.2371
1.656                 0.02445423       -173.5252        0.9930773       -76.52154        0.9930773       -76.52154       0.02445423       -159.5179
1.662                 0.02454715       -173.7982        0.9930462       -76.79846        0.9930462       -76.79846       0.02454716       -159.7988
1.668                 0.02464006       -174.0711        0.9930152       -77.07536        0.9930153       -77.07536       0.02464006       -160.0796
1.674                 0.02473295       -174.3439         0.992984       -77.35231         0.992984       -77.35231       0.02473295       -160.3607
1.68                  0.02482583       -174.6166        0.9929528       -77.62923        0.9929528       -77.62923       0.02482583       -160.6419
1.686                 0.02491868       -174.8892        0.9929215       -77.90616        0.9929215       -77.90616       0.02491869       -160.9231
1.692                 0.02501152       -175.1616        0.9928902       -78.18308        0.9928901       -78.18308       0.02501152       -161.2045
1.698                 0.02510434        -175.434        0.9928588       -78.45998        0.9928588       -78.45998       0.02510434       -161.4859
1.704                 0.02519714       -175.7063        0.9928273        -78.7369        0.9928272        -78.7369       0.02519714       -161.7675
1.71                  0.02528992       -175.9785        0.9927959        -79.0138        0.9927959        -79.0138       0.02528992       -162.0491
1.716                 0.02538267       -176.2505        0.9927642        -79.2907        0.9927641        -79.2907       0.02538267       -162.3309
1.722                  0.0254754       -176.5225        0.9927326       -79.56762        0.9927326       -79.56762        0.0254754       -162.6128
1.728                 0.02556811       -176.7943         0.992701       -79.84451         0.992701       -79.84451       0.02556811       -162.8947
1.734                 0.02566079       -177.0661        0.9926692       -80.12141        0.9926692       -80.12141       0.02566079       -163.1768
1.74                  0.02575345       -177.3377        0.9926374        -80.3983        0.9926373        -80.3983       0.02575345       -163.4589
1.746                 0.02584607       -177.6092        0.9926055       -80.67518        0.9926054       -80.67518       0.02584607       -163.7412
1.752                 0.02593867       -177.8806        0.9925737       -80.95207        0.9925737       -80.95207       0.02593867       -164.0235
1.758                 0.02603123       -178.1519        0.9925417       -81.22895        0.9925417       -81.22895       0.02603123        -164.306
1.764                 0.02612377       -178.4231        0.9925096       -81.50583        0.9925096       -81.50583       0.02612376       -164.5886
1.77                  0.02621627       -178.6942        0.9924776       -81.78271        0.9924775       -81.78271       0.02621627       -164.8712
1.776                 0.02630874       -178.9652        0.9924454        -82.0596        0.9924454        -82.0596       0.02630874        -165.154
1.782                 0.02640117        -179.236        0.9924133       -82.33646        0.9924133       -82.33646       0.02640117       -165.4369
1.788                 0.02649356       -179.5068        0.9923809       -82.61333        0.9923809       -82.61333       0.02649356       -165.7199
1.794                 0.02658592       -179.7774        0.9923487        -82.8902        0.9923487        -82.8902       0.02658592        -166.003
1.8                   0.02667825         179.952        0.9923164       -83.16707        0.9923164       -83.16707       0.02667824       -166.2862
1.806                 0.02677053        179.6816         0.992284       -83.44393         0.992284       -83.44393       0.02677052       -166.5694
1.812                 0.02686277        179.4113        0.9922516       -83.72078        0.9922516       -83.72078       0.02686276       -166.8528
1.818                 0.02695497        179.1411        0.9922191       -83.99763        0.9922191       -83.99763       0.02695496       -167.1363
1.824                 0.02704712         178.871        0.9921865       -84.27449        0.9921864       -84.27449       0.02704712       -167.4199
1.83                  0.02713923         178.601        0.9921539       -84.55133        0.9921538       -84.55133       0.02713923       -167.7036
1.836                 0.02723129        178.3311        0.9921212       -84.82819        0.9921211       -84.82819       0.02723129       -167.9875
1.842                 0.02732331        178.0613        0.9920886       -85.10503        0.9920885       -85.10503       0.02732331       -168.2714
1.848                 0.02741528        177.7917        0.9920558       -85.38187        0.9920557       -85.38187       0.02741528       -168.5554
1.854                  0.0275072        177.5221         0.992023       -85.65871        0.9920229       -85.65871        0.0275072       -168.8395
1.86                  0.02759907        177.2527        0.9919902       -85.93555        0.9919902       -85.93555       0.02759907       -169.1238
1.866                 0.02769089        176.9833        0.9919573       -86.21238        0.9919573       -86.21238       0.02769088       -169.4081
1.872                 0.02778265        176.7141        0.9919243       -86.48921        0.9919243       -86.48921       0.02778265       -169.6925
1.878                 0.02787436         176.445        0.9918914       -86.76603        0.9918913       -86.76603       0.02787436       -169.9771
1.884                 0.02796602         176.176        0.9918583       -87.04285        0.9918583       -87.04285       0.02796602       -170.2616
1.89                  0.02805761        175.9071        0.9918254       -87.31969        0.9918252       -87.31969       0.02805761       -170.5464
1.896                 0.02814915        175.6383        0.9917923        -87.5965        0.9917922        -87.5965       0.02814915       -170.8313
1.902                 0.02824063        175.3696         0.991759       -87.87332         0.991759       -87.87332       0.02824063       -171.1163
1.908                 0.02833205        175.1011        0.9917259       -88.15013        0.9917258       -88.15013       0.02833205       -171.4013
1.914                  0.0284234        174.8326        0.9916927       -88.42694        0.9916926       -88.42694        0.0284234       -171.6865
1.92                   0.0285147        174.5643        0.9916594       -88.70374        0.9916593       -88.70374        0.0285147       -171.9717
1.926                 0.02860592         174.296        0.9916262       -88.98054         0.991626       -88.98054       0.02860592       -172.2571
1.932                 0.02869709        174.0279        0.9915929       -89.25736        0.9915928       -89.25736       0.02869708       -172.5426
1.938                 0.02878818        173.7599        0.9915594       -89.53415        0.9915594       -89.53415       0.02878818       -172.8282
1.944                  0.0288792         173.492         0.991526       -89.81096         0.991526       -89.81096        0.0288792       -173.1139
1.95                  0.02897016        173.2242        0.9914925       -90.08775        0.9914925       -90.08775       0.02897016       -173.3997
1.956                 0.02906104        172.9565        0.9914589       -90.36453        0.9914589       -90.36453       0.02906104       -173.6855
1.962                 0.02915185        172.6889        0.9914255       -90.64132        0.9914255       -90.64132       0.02915185       -173.9716
1.968                 0.02924258        172.4215        0.9913919       -90.91811        0.9913919       -90.91811       0.02924258       -174.2577
1.974                 0.02933324        172.1541        0.9913583       -91.19489        0.9913583       -91.19489       0.02933324       -174.5439
1.98                  0.02942383        171.8869        0.9913245       -91.47168        0.9913245       -91.47168       0.02942382       -174.8302
1.986                 0.02951433        171.6197        0.9912909       -91.74845        0.9912909       -91.74845       0.02951433       -175.1166
1.992                 0.02960475        171.3527        0.9912571       -92.02522        0.9912571       -92.02522       0.02960475       -175.4031
1.998                 0.02969509        171.0858        0.9912235         -92.302        0.9912235         -92.302       0.02969509       -175.6898
2.004                 0.02978535         170.819        0.9911896       -92.57877        0.9911896       -92.57877       0.02978535       -175.9765
2.01                  0.02987553        170.5523        0.9911558       -92.85553        0.9911558       -92.85553       0.02987553       -176.2633
2.016                 0.02996562        170.2857         0.991122       -93.13229         0.991122       -93.13229       0.02996562       -176.5502
2.022                 0.03005562        170.0192        0.9910881       -93.40906         0.991088       -93.40908       0.03005562       -176.8373
2.028                 0.03014554        169.7528        0.9910541       -93.68581        0.9910541       -93.68581       0.03014554       -177.1244
2.034                 0.03023536        169.4865        0.9910202       -93.96258        0.9910202       -93.96258       0.03023536       -177.4117
2.04                  0.03032509        169.2204        0.9909862       -94.23933        0.9909861       -94.23933       0.03032509        -177.699
2.046                 0.03041473        168.9543        0.9909522       -94.51609        0.9909522       -94.51609       0.03041473       -177.9865
2.052                 0.03050428        168.6884        0.9909182       -94.79283        0.9909182       -94.79283       0.03050428        -178.274
2.058                 0.03059373        168.4226         0.990884       -95.06958         0.990884       -95.06958       0.03059373       -178.5617
2.064                 0.03068308        168.1568          0.99085       -95.34631          0.99085       -95.34631       0.03068308       -178.8494
2.07                  0.03077234        167.8912        0.9908159       -95.62305        0.9908158       -95.62305       0.03077234       -179.1373
2.076                 0.03086149        167.6257        0.9907818        -95.8998        0.9907818        -95.8998       0.03086149       -179.4253
2.082                 0.03095054        167.3603        0.9907476       -96.17653        0.9907476       -96.17653       0.03095054       -179.7134
2.088                 0.03103949         167.095        0.9907133       -96.45326        0.9907132       -96.45326       0.03103949        179.9985
2.094                 0.03112833        166.8298        0.9906792          -96.73        0.9906793          -96.73       0.03112833        179.7102
2.1                   0.03121707        166.5647        0.9906449       -97.00673        0.9906449       -97.00673       0.03121707        179.4218
2.106                 0.03130571        166.2998        0.9906106       -97.28346        0.9906105       -97.28346        0.0313057        179.1333
2.112                 0.03139422        166.0349        0.9905762       -97.56018        0.9905761       -97.56019       0.03139422        178.8447
2.118                 0.03148263        165.7701        0.9905419        -97.8369        0.9905419        -97.8369       0.03148263        178.5561
2.124                 0.03157093        165.5055        0.9905076       -98.11361        0.9905076       -98.11363       0.03157092        178.2673
2.13                  0.03165912        165.2409        0.9904732       -98.39033        0.9904732       -98.39033       0.03165911        177.9784
2.136                 0.03174718        164.9765        0.9904389       -98.66704        0.9904389       -98.66704       0.03174718        177.6894
2.142                 0.03183513        164.7122        0.9904044       -98.94374        0.9904044       -98.94374       0.03183514        177.4003
2.148                 0.03192296        164.4479          0.99037       -99.22046        0.9903699       -99.22046       0.03192297        177.1112
2.154                 0.03201068        164.1838        0.9903355       -99.49717        0.9903355       -99.49716       0.03201067        176.8218
2.16                  0.03209827        163.9198        0.9903012       -99.77387        0.9903012       -99.77388       0.03209827        176.5324
2.166                 0.03218574        163.6559        0.9902666       -100.0506        0.9902666       -100.0506       0.03218574         176.243
2.172                 0.03227308        163.3921        0.9902322       -100.3273        0.9902322       -100.3273       0.03227308        175.9534
2.178                  0.0323603        163.1284        0.9901976        -100.604        0.9901976        -100.604        0.0323603        175.6637
2.184                 0.03244738        162.8648        0.9901631       -100.8807        0.9901632       -100.8807       0.03244738        175.3739
2.19                  0.03253434        162.6013        0.9901285       -101.1574        0.9901285       -101.1574       0.03253434         175.084
2.196                 0.03262117        162.3379        0.9900939        -101.434        0.9900938        -101.434       0.03262117         174.794
2.202                 0.03270786        162.0746        0.9900594       -101.7107        0.9900594       -101.7107       0.03270786        174.5039
2.208                 0.03279442        161.8114        0.9900248       -101.9874        0.9900248       -101.9874       0.03279442        174.2137
2.214                 0.03288085        161.5484        0.9899902       -102.2641        0.9899902       -102.2641       0.03288085        173.9235
2.22                  0.03296714        161.2854        0.9899555       -102.5408        0.9899555       -102.5408       0.03296713        173.6331
2.226                 0.03305328        161.0225        0.9899209       -102.8175        0.9899209       -102.8175       0.03305327        173.3426
2.232                 0.03313928        160.7597        0.9898862       -103.0941        0.9898861       -103.0941       0.03313929         173.052
2.238                 0.03322515        160.4971        0.9898515       -103.3708        0.9898515       -103.3708       0.03322515        172.7614
2.244                 0.03331087        160.2345        0.9898169       -103.6475        0.9898169       -103.6475       0.03331086        172.4705
2.25                  0.03339644        159.9721        0.9897821       -103.9242        0.9897821       -103.9242       0.03339644        172.1797
2.256                 0.03348187        159.7097        0.9897474       -104.2008        0.9897472       -104.2008       0.03348187        171.8887
2.262                 0.03356714        159.4475        0.9897127       -104.4775        0.9897127       -104.4775       0.03356714        171.5976
2.268                 0.03365226        159.1853         0.989678       -104.7541         0.989678       -104.7541       0.03365226        171.3064
2.274                 0.03373724        158.9233        0.9896433       -105.0308        0.9896433       -105.0308       0.03373724        171.0151
2.28                  0.03382206        158.6613        0.9896086       -105.3075        0.9896086       -105.3075       0.03382206        170.7238
2.286                 0.03390671        158.3995        0.9895738       -105.5841        0.9895738       -105.5841       0.03390671        170.4323
2.292                 0.03399122        158.1377        0.9895391       -105.8608        0.9895391       -105.8608       0.03399122        170.1408
2.298                 0.03407557        157.8761        0.9895043       -106.1374        0.9895042       -106.1374       0.03407557        169.8491
2.304                 0.03415975        157.6146        0.9894695       -106.4141        0.9894696       -106.4141       0.03415975        169.5573
2.31                  0.03424377        157.3531        0.9894348       -106.6907        0.9894347       -106.6907       0.03424377        169.2655
2.316                 0.03432763        157.0918        0.9894001       -106.9674        0.9894001       -106.9674       0.03432763        168.9735
2.322                 0.03441132        156.8305        0.9893653        -107.244        0.9893653        -107.244       0.03441132        168.6814
2.328                 0.03449484        156.5694        0.9893305       -107.5206        0.9893305       -107.5207       0.03449484        168.3893
2.334                 0.03457819        156.3083        0.9892957       -107.7973        0.9892957       -107.7973       0.03457819        168.0971
2.34                  0.03466137        156.0474         0.989261       -108.0739         0.989261       -108.0739       0.03466138        167.8048
2.346                 0.03474438        155.7865        0.9892262       -108.3506        0.9892262       -108.3506       0.03474438        167.5123
2.352                 0.03482721        155.5258        0.9891914       -108.6272        0.9891914       -108.6272       0.03482721        167.2198
2.358                 0.03490987        155.2651        0.9891566       -108.9038        0.9891566       -108.9038       0.03490987        166.9272
2.364                 0.03499234        155.0046        0.9891218       -109.1804        0.9891218       -109.1804       0.03499234        166.6345
2.37                  0.03507464        154.7442        0.9890871       -109.4571        0.9890871       -109.4571       0.03507464        166.3418
2.376                 0.03515676        154.4838        0.9890522       -109.7337        0.9890522       -109.7337       0.03515676        166.0488
2.382                 0.03523869        154.2235        0.9890174       -110.0103        0.9890174       -110.0103       0.03523869        165.7558
2.388                 0.03532043        153.9634        0.9889826       -110.2869        0.9889826       -110.2869       0.03532044        165.4628
2.394                 0.03540199        153.7033        0.9889479       -110.5636        0.9889479       -110.5636       0.03540199        165.1696
2.4                   0.03548336        153.4434        0.9889132       -110.8402        0.9889132       -110.8402       0.03548336        164.8763
2.406                 0.03556454        153.1835        0.9888784       -111.1168        0.9888784       -111.1168       0.03556454        164.5829
2.412                 0.03564552        152.9237        0.9888437       -111.3934        0.9888437       -111.3934       0.03564553        164.2894
2.418                 0.03572632         152.664        0.9888088         -111.67        0.9888088         -111.67       0.03572632        163.9959
2.424                 0.03580691        152.4045        0.9887741       -111.9466        0.9887741       -111.9466       0.03580692        163.7023
2.43                  0.03588731         152.145        0.9887394       -112.2233        0.9887394       -112.2233       0.03588731        163.4085
2.436                 0.03596751        151.8856        0.9887046       -112.4999        0.9887046       -112.4999       0.03596751        163.1147
2.442                  0.0360475        151.6263        0.9886699       -112.7765        0.9886699       -112.7765        0.0360475        162.8208
2.448                 0.03612729        151.3671        0.9886352       -113.0531        0.9886352       -113.0531        0.0361273        162.5267
2.454                 0.03620688         151.108        0.9886005       -113.3297        0.9886005       -113.3297       0.03620689        162.2327
2.46                  0.03628626         150.849        0.9885658       -113.6063        0.9885657       -113.6063       0.03628626        161.9385
2.466                 0.03636543        150.5901         0.988531       -113.8829         0.988531       -113.8829       0.03636544        161.6442
2.472                 0.03644439        150.3312        0.9884963       -114.1595        0.9884963       -114.1595       0.03644439        161.3499
2.478                 0.03652314        150.0725        0.9884616       -114.4361        0.9884615       -114.4361       0.03652314        161.0553
2.484                 0.03660167        149.8139         0.988427       -114.7127        0.9884269       -114.7127       0.03660167        160.7608
2.49                  0.03667999        149.5553        0.9883924       -114.9893        0.9883923       -114.9892       0.03667999        160.4662
2.496                 0.03675808        149.2969        0.9883577       -115.2658        0.9883575       -115.2658       0.03675809        160.1715
2.502                 0.03683596        149.0385        0.9883232       -115.5424        0.9883231       -115.5424       0.03683596        159.8766
2.508                 0.03691362        148.7803        0.9882885        -115.819        0.9882885        -115.819       0.03691362        159.5817
2.514                 0.03699105        148.5221        0.9882539       -116.0956        0.9882539       -116.0956       0.03699105        159.2867
2.52                  0.03706826         148.264        0.9882194       -116.3722        0.9882194       -116.3722       0.03706826        158.9916
2.526                 0.03714523         148.006        0.9881848       -116.6488        0.9881848       -116.6488       0.03714524        158.6964
2.532                 0.03722199        147.7481        0.9881502       -116.9254        0.9881501       -116.9254       0.03722199        158.4011
2.538                  0.0372985        147.4903        0.9881158        -117.202        0.9881157        -117.202        0.0372985        158.1058
2.544                 0.03737479        147.2326        0.9880811       -117.4785         0.988081       -117.4785       0.03737479        157.8104
2.55                  0.03745084         146.975        0.9880468       -117.7551        0.9880467       -117.7551       0.03745084        157.5149
2.556                 0.03752665        146.7174        0.9880121       -118.0317        0.9880121       -118.0317       0.03752666        157.2192
2.562                 0.03760223          146.46        0.9879777       -118.3083        0.9879776       -118.3083       0.03760223        156.9235
2.568                 0.03767756        146.2026        0.9879434       -118.5848        0.9879434       -118.5848       0.03767756        156.6277
2.574                 0.03775265        145.9453        0.9879089       -118.8614        0.9879088       -118.8614       0.03775265        156.3319
2.58                   0.0378275        145.6882        0.9878744        -119.138        0.9878745        -119.138        0.0378275        156.0359
2.586                  0.0379021        145.4311          0.98784       -119.4146          0.98784       -119.4146        0.0379021        155.7398
2.592                 0.03797645        145.1741        0.9878056       -119.6911        0.9878055       -119.6911       0.03797645        155.4437
2.598                 0.03805055        144.9171        0.9877714       -119.9677        0.9877714       -119.9677       0.03805055        155.1474
2.604                 0.03812439        144.6603         0.987737       -120.2443        0.9877369       -120.2443        0.0381244        154.8512
2.61                  0.03819799        144.4036        0.9877029       -120.5209        0.9877029       -120.5209         0.038198        154.5547
2.616                 0.03827133        144.1469        0.9876685       -120.7974        0.9876685       -120.7974       0.03827133        154.2582
2.622                 0.03834441        143.8904        0.9876342        -121.074        0.9876341        -121.074       0.03834441        153.9617
2.628                 0.03841723        143.6339        0.9875999       -121.3505        0.9875998       -121.3505       0.03841724         153.665
2.634                 0.03848979        143.3775        0.9875659       -121.6271        0.9875659       -121.6271       0.03848979        153.3683
2.64                  0.03856208        143.1212        0.9875317       -121.9037        0.9875316       -121.9037       0.03856209        153.0715
2.646                 0.03863411         142.865        0.9874975       -122.1802        0.9874974       -122.1802       0.03863412        152.7745
2.652                 0.03870587        142.6088        0.9874633       -122.4568        0.9874633       -122.4568       0.03870588        152.4776
2.658                 0.03877736        142.3528        0.9874293       -122.7333        0.9874292       -122.7333       0.03877737        152.1805
2.664                 0.03884858        142.0968        0.9873954       -123.0099        0.9873955       -123.0099       0.03884859        151.8834
2.67                  0.03891954        141.8409        0.9873613       -123.2865        0.9873613       -123.2865       0.03891954        151.5861
2.676                  0.0389902        141.5851        0.9873272        -123.563        0.9873272        -123.563       0.03899021        151.2888
2.682                 0.03906059        141.3294        0.9872933       -123.8396        0.9872933       -123.8396        0.0390606        150.9914
2.688                 0.03913071        141.0738        0.9872593       -124.1161        0.9872592       -124.1161       0.03913071         150.694
2.694                 0.03920054        140.8183        0.9872255       -124.3927        0.9872256       -124.3927       0.03920055        150.3964
2.7                   0.03927009        140.5628        0.9871915       -124.6692        0.9871916       -124.6692       0.03927009        150.0987
2.706                 0.03933936        140.3074        0.9871577       -124.9458        0.9871577       -124.9458       0.03933936        149.8009
2.712                 0.03940833        140.0521        0.9871238       -125.2223        0.9871238       -125.2223       0.03940833        149.5032
2.718                 0.03947702        139.7969        0.9870902       -125.4989        0.9870903       -125.4989       0.03947702        149.2053
2.724                 0.03954541        139.5418        0.9870563       -125.7755        0.9870563       -125.7755       0.03954542        148.9073
2.73                  0.03961352        139.2867        0.9870227        -126.052        0.9870228        -126.052       0.03961352        148.6092
2.736                 0.03968132        139.0318        0.9869889       -126.3286        0.9869889       -126.3286       0.03968132        148.3111
2.742                 0.03974883        138.7769        0.9869552       -126.6051        0.9869553       -126.6051       0.03974883        148.0129
2.748                 0.03981604        138.5221        0.9869217       -126.8817        0.9869218       -126.8817       0.03981604        147.7146
2.754                 0.03988295        138.2674        0.9868881       -127.1582        0.9868881       -127.1582       0.03988295        147.4162
2.76                  0.03994955        138.0127        0.9868547       -127.4348        0.9868547       -127.4348       0.03994955        147.1177
2.766                 0.04001585        137.7582        0.9868211       -127.7113        0.9868212       -127.7113       0.04001585        146.8192
2.772                 0.04008184        137.5037        0.9867877       -127.9879        0.9867878       -127.9879       0.04008185        146.5206
2.778                 0.04014753        137.2493        0.9867541       -128.2644         0.986754       -128.2644       0.04014753        146.2219
2.784                  0.0402129         136.995        0.9867207       -128.5409        0.9867207       -128.5409       0.04021291        145.9231
2.79                  0.04027795        136.7408        0.9866875       -128.8175        0.9866876       -128.8175       0.04027796        145.6242
2.796                  0.0403427        136.4866        0.9866542       -129.0941        0.9866542       -129.0941        0.0403427        145.3253
2.802                 0.04040712        136.2325        0.9866209       -129.3706         0.986621       -129.3706       0.04040713        145.0263
2.808                 0.04047123        135.9785        0.9865878       -129.6472        0.9865878       -129.6472       0.04047123        144.7272
2.814                 0.04053501        135.7246        0.9865545       -129.9237        0.9865545       -129.9237       0.04053502         144.428
2.82                  0.04059847        135.4708        0.9865214       -130.2002        0.9865214       -130.2002       0.04059848        144.1288
2.826                 0.04066161         135.217        0.9864882       -130.4768        0.9864881       -130.4768       0.04066162        143.8295
2.832                 0.04072442        134.9633        0.9864552       -130.7533        0.9864552       -130.7534       0.04072442          143.53
2.838                  0.0407869        134.7097        0.9864223       -131.0299        0.9864223       -131.0299       0.04078691        143.2305
2.844                 0.04084904        134.4561        0.9863892       -131.3064        0.9863893       -131.3064       0.04084905         142.931
2.85                  0.04091086        134.2027        0.9863563        -131.583        0.9863563        -131.583       0.04091087        142.6314
2.856                 0.04097233        133.9493        0.9863233       -131.8595        0.9863233       -131.8595       0.04097234        142.3317
2.862                 0.04103348         133.696        0.9862906       -132.1361        0.9862907       -132.1361       0.04103349        142.0319
2.868                 0.04109428        133.4428        0.9862577       -132.4126        0.9862576       -132.4126       0.04109429         141.732
2.874                 0.04115473        133.1896        0.9862251       -132.6892         0.986225       -132.6892       0.04115474         141.432
2.88                  0.04121485        132.9366        0.9861923       -132.9657        0.9861923       -132.9657       0.04121486         141.132
2.886                 0.04127462        132.6835        0.9861597       -133.2423        0.9861598       -133.2423       0.04127462        140.8319
2.892                 0.04133404        132.4306         0.986127       -133.5188         0.986127       -133.5188       0.04133405        140.5317
2.898                 0.04139311        132.1778        0.9860945       -133.7954        0.9860946       -133.7953       0.04139311        140.2315
2.904                 0.04145184         131.925        0.9860621       -134.0719        0.9860622       -134.0719       0.04145184        139.9312
2.91                   0.0415102        131.6723        0.9860295       -134.3485        0.9860294       -134.3485       0.04151021        139.6307
2.916                 0.04156821        131.4197        0.9859971        -134.625        0.9859972        -134.625       0.04156821        139.3303
2.922                 0.04162586        131.1671        0.9859649       -134.9016        0.9859649       -134.9016       0.04162587        139.0297
2.928                 0.04168315        130.9147        0.9859324       -135.1781        0.9859323       -135.1781       0.04168316        138.7292
2.934                 0.04174008        130.6622        0.9859002       -135.4547        0.9859002       -135.4546       0.04174009        138.4285
2.94                  0.04179665        130.4099        0.9858681       -135.7312        0.9858682       -135.7312       0.04179665        138.1277
2.946                 0.04185284        130.1576        0.9858359       -136.0078        0.9858359       -136.0078       0.04185285        137.8269
2.952                 0.04190867        129.9055        0.9858037       -136.2843        0.9858037       -136.2843       0.04190867        137.5259
2.958                 0.04196413        129.6533        0.9857717       -136.5609        0.9857718       -136.5609       0.04196414        137.2249
2.964                 0.04201922        129.4013        0.9857398       -136.8374        0.9857399       -136.8374       0.04201922        136.9239
2.97                  0.04207393        129.1493        0.9857078        -137.114        0.9857077        -137.114       0.04207394        136.6227
2.976                 0.04212826        128.8974        0.9856759       -137.3905        0.9856759       -137.3905       0.04212827        136.3215
2.982                 0.04218222        128.6456        0.9856441       -137.6671        0.9856441       -137.6671       0.04218223        136.0202
2.988                  0.0422358        128.3938        0.9856123       -137.9437        0.9856123       -137.9437       0.04223581        135.7188
2.994                 0.04228898        128.1421        0.9855808       -138.2202        0.9855809       -138.2202       0.04228899        135.4175
3                      0.0423418        127.8905        0.9855491       -138.4968        0.9855491       -138.4968        0.0423418        135.1159
3.006                 0.04239422         127.639        0.9855174       -138.7733        0.9855175       -138.7733       0.04239422        134.8143
3.012                 0.04244625        127.3875        0.9854859       -139.0499         0.985486       -139.0499       0.04244625        134.5127
3.018                 0.04249789        127.1361        0.9854545       -139.3265        0.9854545       -139.3265       0.04249789         134.211
3.024                 0.04254913        126.8848         0.985423        -139.603        0.9854231        -139.603       0.04254914        133.9091
3.03                  0.04259999        126.6335        0.9853917       -139.8796        0.9853918       -139.8796       0.04259999        133.6073
3.036                 0.04265044        126.3823        0.9853602       -140.1561        0.9853602       -140.1561       0.04265045        133.3054
3.042                  0.0427005        126.1312         0.985329       -140.4327        0.9853289       -140.4327        0.0427005        133.0034
3.048                 0.04275015        125.8802        0.9852979       -140.7093        0.9852979       -140.7093       0.04275015        132.7013
3.054                  0.0427994        125.6292        0.9852667       -140.9859        0.9852667       -140.9859        0.0427994        132.3992
3.06                  0.04284825        125.3782        0.9852356       -141.2624        0.9852356       -141.2624       0.04284825        132.0969
3.066                 0.04289669        125.1274        0.9852047        -141.539        0.9852048        -141.539       0.04289669        131.7946
3.072                 0.04294471        124.8766        0.9851737       -141.8156        0.9851738       -141.8155       0.04294472        131.4923
3.078                 0.04299233        124.6259        0.9851429       -142.0921         0.985143       -142.0921       0.04299234        131.1898
3.084                 0.04303953        124.3752         0.985112       -142.3687         0.985112       -142.3687       0.04303953        130.8873
3.09                  0.04308632        124.1247        0.9850812       -142.6453        0.9850811       -142.6453       0.04308632        130.5847
3.096                 0.04313268        123.8742        0.9850507       -142.9219        0.9850508       -142.9219       0.04313269        130.2821
3.102                 0.04317863        123.6237        0.9850199       -143.1985        0.9850199       -143.1985       0.04317864        129.9794
3.108                 0.04322415        123.3733        0.9849895        -143.475        0.9849896        -143.475       0.04322416        129.6766
3.114                 0.04326925         123.123         0.984959       -143.7516         0.984959       -143.7516       0.04326926        129.3737
3.12                  0.04331393        122.8728        0.9849285       -144.0282        0.9849284       -144.0282       0.04331394        129.0708
3.126                 0.04335818        122.6226        0.9848982       -144.3048        0.9848983       -144.3048       0.04335818        128.7679
3.132                 0.04340199        122.3725        0.9848679       -144.5814        0.9848679       -144.5814         0.043402        128.4648
3.138                 0.04344537        122.1225        0.9848375        -144.858        0.9848375        -144.858       0.04344538        128.1617
3.144                 0.04348832        121.8725        0.9848074       -145.1346        0.9848074       -145.1346       0.04348832        127.8584
3.15                  0.04353083        121.6226        0.9847773       -145.4112        0.9847772       -145.4112       0.04353084        127.5551
3.156                 0.04357291        121.3727        0.9847473       -145.6878        0.9847473       -145.6878       0.04357291        127.2518
3.162                 0.04361454        121.1229        0.9847173       -145.9644        0.9847173       -145.9644       0.04361455        126.9484
3.168                 0.04365573        120.8732        0.9846874       -146.2409        0.9846874       -146.2409       0.04365574        126.6449
3.174                 0.04369648        120.6236        0.9846577       -146.5176        0.9846577       -146.5176       0.04369648        126.3413
3.18                  0.04373678         120.374         0.984628       -146.7942         0.984628       -146.7942       0.04373678        126.0377
3.186                 0.04377663        120.1245        0.9845983       -147.0708        0.9845983       -147.0708       0.04377663         125.734
3.192                 0.04381602         119.875        0.9845686       -147.3474        0.9845686       -147.3474       0.04381603        125.4302
3.198                 0.04385496        119.6256        0.9845392        -147.624        0.9845393        -147.624       0.04385497        125.1264
3.204                 0.04389345        119.3763        0.9845095       -147.9006        0.9845095       -147.9006       0.04389345        124.8226
3.21                  0.04393149         119.127        0.9844803       -148.1772        0.9844803       -148.1772       0.04393149        124.5186
3.216                 0.04396905        118.8778        0.9844509       -148.4538        0.9844509       -148.4538       0.04396906        124.2146
3.222                 0.04400616        118.6286        0.9844217       -148.7305        0.9844218       -148.7305       0.04400617        123.9105
3.228                 0.04404281        118.3796        0.9843925       -149.0071        0.9843926       -149.0071       0.04404282        123.6063
3.234                   0.044079        118.1306        0.9843633       -149.2837        0.9843633       -149.2837         0.044079        123.3021
3.24                  0.04411471        117.8816        0.9843343       -149.5603        0.9843342       -149.5603       0.04411471        122.9978
3.246                 0.04414996        117.6327        0.9843053        -149.837        0.9843052        -149.837       0.04414996        122.6934
3.252                 0.04418472        117.3839        0.9842765       -150.1136        0.9842765       -150.1136       0.04418473         122.389
3.258                 0.04421903        117.1351        0.9842476       -150.3902        0.9842476       -150.3902       0.04421903        122.0844
3.264                 0.04425285        116.8864        0.9842189       -150.6669        0.9842188       -150.6669       0.04425286        121.7799
3.27                  0.04428619        116.6378        0.9841903       -150.9435        0.9841904       -150.9435       0.04428619        121.4752
3.276                 0.04431906        116.3892        0.9841617       -151.2201        0.9841618       -151.2201       0.04431907        121.1705
3.282                 0.04435143        116.1407        0.9841331       -151.4968         0.984133       -151.4968       0.04435144        120.8658
3.288                 0.04438334        115.8923        0.9841047       -151.7734        0.9841048       -151.7734       0.04438334        120.5609
3.294                 0.04441475        115.6439        0.9840764       -152.0501        0.9840765       -152.0501       0.04441475         120.256
3.3                   0.04444567        115.3955         0.984048       -152.3267        0.9840481       -152.3267       0.04444567        119.9511
3.306                 0.04447611        115.1472          0.98402       -152.6034        0.9840201       -152.6034       0.04447611        119.6459
3.312                 0.04450605         114.899        0.9839918       -152.8801        0.9839918       -152.8801       0.04450605        119.3408
3.318                  0.0445355        114.6509        0.9839638       -153.1567        0.9839639       -153.1567        0.0445355        119.0357
3.324                 0.04456445        114.4028        0.9839358       -153.4334        0.9839358       -153.4334       0.04456445        118.7304
3.33                   0.0445929        114.1548         0.983908         -153.71         0.983908         -153.71       0.04459291        118.4251
3.336                 0.04462085        113.9068          0.98388       -153.9867          0.98388       -153.9867       0.04462086        118.1198
3.342                  0.0446483        113.6589        0.9838523       -154.2634        0.9838523       -154.2634       0.04464831        117.8143
3.348                 0.04467525        113.4111        0.9838247       -154.5401        0.9838248       -154.5401       0.04467525        117.5088
3.354                 0.04470168        113.1633        0.9837971       -154.8168        0.9837971       -154.8168       0.04470169        117.2032
3.36                  0.04472762        112.9156        0.9837696       -155.0935        0.9837697       -155.0935       0.04472762        116.8975
3.366                 0.04475304        112.6679        0.9837422       -155.3702        0.9837422       -155.3702       0.04475305        116.5918
3.372                 0.04477795        112.4203        0.9837148       -155.6468        0.9837149       -155.6468       0.04477795         116.286
3.378                 0.04480234        112.1728        0.9836876       -155.9235        0.9836875       -155.9235       0.04480235        115.9802
3.384                 0.04482622        111.9253        0.9836606       -156.2002        0.9836607       -156.2002       0.04482622        115.6743
3.39                  0.04484958        111.6779        0.9836334       -156.4769        0.9836334       -156.4769       0.04484958        115.3683
3.396                 0.04487241        111.4305        0.9836063       -156.7536        0.9836063       -156.7536       0.04487242        115.0622
3.402                 0.04489473        111.1832        0.9835794       -157.0304        0.9835794       -157.0304       0.04489474        114.7561
3.408                 0.04491652         110.936        0.9835527       -157.3071        0.9835527       -157.3071       0.04491653        114.4499
3.414                 0.04493779        110.6888        0.9835258       -157.5838        0.9835258       -157.5838       0.04493779        114.1437
3.42                  0.04495852        110.4417        0.9834992       -157.8605        0.9834993       -157.8605       0.04495852        113.8373
3.426                 0.04497873        110.1946        0.9834726       -158.1372        0.9834727       -158.1372       0.04497874        113.5309
3.432                 0.04499839        109.9476        0.9834461        -158.414        0.9834462        -158.414        0.0449984        113.2245
3.438                 0.04501754        109.7007        0.9834197       -158.6907        0.9834198       -158.6907       0.04501755        112.9179
3.444                 0.04503614        109.4538        0.9833934       -158.9674        0.9833934       -158.9674       0.04503614        112.6114
3.45                   0.0450542        109.2069        0.9833671       -159.2442        0.9833672       -159.2442       0.04505421        112.3047
3.456                 0.04507173        108.9602        0.9833409       -159.5209        0.9833409       -159.5209       0.04507173         111.998
3.462                  0.0450887        108.7135        0.9833148       -159.7977        0.9833148       -159.7977       0.04508871        111.6912
3.468                 0.04510514        108.4668        0.9832888       -160.0744        0.9832887       -160.0744       0.04510515        111.3844
3.474                 0.04512103        108.2202         0.983263       -160.3512         0.983263       -160.3512       0.04512103        111.0774
3.48                  0.04513637        107.9737         0.983237       -160.6279         0.983237       -160.6279       0.04513637        110.7704
3.486                 0.04515116        107.7272        0.9832114       -160.9047        0.9832115       -160.9047       0.04515117        110.4633
3.492                  0.0451654        107.4808        0.9831857       -161.1815        0.9831858       -161.1815        0.0451654        110.1562
3.498                 0.04517908        107.2344        0.9831602       -161.4583        0.9831602       -161.4583       0.04517909         109.849
3.504                 0.04519221        106.9881        0.9831347        -161.735        0.9831347        -161.735       0.04519221        109.5417
3.51                  0.04520478        106.7419        0.9831093       -162.0118        0.9831094       -162.0118       0.04520479        109.2344
3.516                 0.04521679        106.4957        0.9830839       -162.2886        0.9830839       -162.2886        0.0452168         108.927
3.522                 0.04522824        106.2496        0.9830588       -162.5654        0.9830589       -162.5654       0.04522824        108.6196
3.528                 0.04523913        106.0036        0.9830336       -162.8422        0.9830337       -162.8422       0.04523913         108.312
3.534                 0.04524944        105.7576        0.9830086        -163.119        0.9830087        -163.119       0.04524945        108.0044
3.54                  0.04525919        105.5116        0.9829836       -163.3958        0.9829836       -163.3958        0.0452592        107.6967
3.546                 0.04526838        105.2657        0.9829587       -163.6727        0.9829586       -163.6727       0.04526838         107.389
3.552                 0.04527699        105.0199         0.982934       -163.9495         0.982934       -163.9495       0.04527699        107.0812
3.558                 0.04528502        104.7741        0.9829093       -164.2263        0.9829092       -164.2263       0.04528502        106.7733
3.564                 0.04529248        104.5284        0.9828847       -164.5031        0.9828847       -164.5031       0.04529248        106.4654
3.57                  0.04529937        104.2828        0.9828602         -164.78        0.9828603         -164.78       0.04529937        106.1573
3.576                 0.04530566        104.0372        0.9828359       -165.0568        0.9828359       -165.0568       0.04530566        105.8492
3.582                 0.04531139        103.7917        0.9828114       -165.3336        0.9828115       -165.3336       0.04531139        105.5411
3.588                 0.04531653        103.5462        0.9827872       -165.6105        0.9827872       -165.6105       0.04531653        105.2329
3.594                 0.04532108        103.3008        0.9827631       -165.8873        0.9827631       -165.8873       0.04532109        104.9245
3.6                   0.04532505        103.0554        0.9827389       -166.1642        0.9827389       -166.1642       0.04532505        104.6163
3.606                 0.04532843        102.8101         0.982715       -166.4411         0.982715       -166.4411       0.04532843        104.3078
3.612                 0.04533122        102.5649         0.982691       -166.7179        0.9826909       -166.7179       0.04533122        103.9992
3.618                 0.04533342        102.3197        0.9826673       -166.9948        0.9826673       -166.9948       0.04533342        103.6907
3.624                 0.04533502        102.0746        0.9826436       -167.2717        0.9826436       -167.2717       0.04533502        103.3821
3.63                  0.04533603        101.8295          0.98262       -167.5486          0.98262       -167.5486       0.04533603        103.0733
3.636                 0.04533643        101.5845        0.9825965       -167.8255        0.9825964       -167.8255       0.04533643        102.7646
3.642                 0.04533624        101.3396        0.9825731       -168.1024        0.9825731       -168.1024       0.04533624        102.4557
3.648                 0.04533545        101.0947        0.9825497       -168.3793        0.9825496       -168.3793       0.04533545        102.1467
3.654                 0.04533405        100.8499        0.9825264       -168.6562        0.9825264       -168.6562       0.04533405        101.8378
3.66                  0.04533205        100.6051        0.9825033       -168.9331        0.9825033       -168.9331       0.04533205        101.5287
3.666                 0.04532944        100.3604        0.9824803         -169.21        0.9824803         -169.21       0.04532944        101.2195
3.672                 0.04532622        100.1158        0.9824573        -169.487        0.9824573        -169.487       0.04532622        100.9104
3.678                 0.04532239         99.8712        0.9824345       -169.7639        0.9824345       -169.7639       0.04532239         100.601
3.684                 0.04531795        99.62668        0.9824116       -170.0408        0.9824117       -170.0408       0.04531795        100.2917
3.69                  0.04531289        99.38221         0.982389       -170.3178         0.982389       -170.3178        0.0453129        99.98227
3.696                 0.04530722        99.13781        0.9823663       -170.5947        0.9823663       -170.5947       0.04530722        99.67273
3.702                 0.04530094        98.89347        0.9823438       -170.8717        0.9823438       -170.8717       0.04530093        99.36319
3.708                 0.04529403         98.6492        0.9823214       -171.1487        0.9823214       -171.1487       0.04529402        99.05348
3.714                 0.04528649        98.40498        0.9822991       -171.4256        0.9822991       -171.4256       0.04528649        98.74382
3.72                  0.04527834        98.16081        0.9822769       -171.7026        0.9822769       -171.7026       0.04527834        98.43401
3.726                 0.04526956        97.91673        0.9822546       -171.9796        0.9822546       -171.9796       0.04526956        98.12408
3.732                 0.04526015        97.67268        0.9822326       -172.2566        0.9822326       -172.2566       0.04526015        97.81415
3.738                 0.04525011         97.4287        0.9822106       -172.5336        0.9822106       -172.5336       0.04525011        97.50417
3.744                 0.04523945        97.18479        0.9821888       -172.8106        0.9821887       -172.8106       0.04523944        97.19403
3.75                  0.04522815        96.94094         0.982167       -173.0876         0.982167       -173.0876       0.04522814        96.88394
3.756                 0.04521622        96.69716        0.9821453       -173.3646        0.9821453       -173.3646       0.04521622        96.57363
3.762                 0.04520365        96.45343        0.9821238       -173.6416        0.9821239       -173.6416       0.04520365        96.26332
3.768                 0.04519045        96.20978        0.9821023       -173.9187        0.9821023       -173.9187       0.04519044         95.9529
3.774                  0.0451766        95.96616        0.9820808       -174.1957        0.9820807       -174.1957        0.0451766        95.64243
3.78                  0.04516212        95.72262        0.9820596       -174.4727        0.9820595       -174.4727       0.04516212        95.33195
3.786                 0.04514699        95.47916        0.9820383       -174.7498        0.9820382       -174.7498       0.04514699        95.02126
3.792                 0.04513122        95.23574        0.9820173       -175.0269        0.9820173       -175.0268       0.04513122        94.71057
3.798                  0.0451148         94.9924        0.9819962       -175.3039        0.9819961       -175.3039        0.0451148        94.39982
3.804                 0.04509774        94.74912        0.9819753        -175.581        0.9819752        -175.581       0.04509774        94.08891
3.81                  0.04508003        94.50589        0.9819544       -175.8581        0.9819544       -175.8581       0.04508003          93.778
3.816                 0.04506166        94.26274        0.9819337       -176.1352        0.9819336       -176.1352       0.04506166        93.46693
3.822                 0.04504265        94.01964        0.9819131       -176.4123        0.9819131       -176.4123       0.04504265        93.15585
3.828                 0.04502298        93.77662        0.9818925       -176.6894        0.9818924       -176.6894       0.04502297        92.84467
3.834                 0.04500265        93.53366         0.981872       -176.9665        0.9818719       -176.9665       0.04500265        92.53343
3.84                  0.04498166        93.29076        0.9818516       -177.2436        0.9818516       -177.2436       0.04498166        92.22209
3.846                 0.04496002        93.04794        0.9818313       -177.5207        0.9818312       -177.5207       0.04496002        91.91068
3.852                 0.04493772        92.80518        0.9818111       -177.7978         0.981811       -177.7979       0.04493771        91.59912
3.858                 0.04491475        92.56249        0.9817911        -178.075         0.981791        -178.075       0.04491475        91.28755
3.864                 0.04489112        92.31985         0.981771       -178.3521         0.981771       -178.3521       0.04489112        90.97593
3.87                  0.04486683         92.0773        0.9817512       -178.6293        0.9817511       -178.6293       0.04486683        90.66415
3.876                 0.04484186         91.8348        0.9817313       -178.9065        0.9817312       -178.9065       0.04484187        90.35231
3.882                 0.04481623        91.59237        0.9817116       -179.1836        0.9817116       -179.1836       0.04481623        90.04041
3.888                 0.04478993        91.35001         0.981692       -179.4608         0.981692       -179.4608       0.04478993        89.72841
3.894                 0.04476296        91.10771        0.9816724        -179.738        0.9816724        -179.738       0.04476296        89.41635
3.9                   0.04473531        90.86549        0.9816529        179.9848        0.9816529        179.9848       0.04473532        89.10414
3.906                 0.04470699        90.62334        0.9816336        179.7076        0.9816336        179.7076       0.04470698        88.79187
3.912                 0.04467799        90.38127        0.9816143        179.4304        0.9816143        179.4304       0.04467799        88.47956
3.918                 0.04464831        90.13925        0.9815953        179.1532        0.9815953        179.1532       0.04464831        88.16712
3.924                 0.04461796        89.89732        0.9815761         178.876        0.9815761         178.876       0.04461796         87.8546
3.93                  0.04458692        89.65545        0.9815572        178.5987        0.9815572        178.5987       0.04458692          87.542
3.936                  0.0445552        89.41365        0.9815383        178.3215        0.9815383        178.3215        0.0445552        87.22931
3.942                  0.0445228        89.17191        0.9815196        178.0442        0.9815196        178.0442       0.04452279        86.91653
3.948                 0.04448971        88.93026        0.9815007         177.767        0.9815007         177.767       0.04448971        86.60368
3.954                 0.04445594        88.68868        0.9814822        177.4897        0.9814822        177.4897       0.04445593        86.29073
3.96                  0.04442147        88.44718        0.9814636        177.2124        0.9814635        177.2124       0.04442147        85.97765
3.966                 0.04438632        88.20574        0.9814452        176.9351        0.9814451        176.9351       0.04438632        85.66453
3.972                 0.04435047        87.96438        0.9814269        176.6578        0.9814269        176.6578       0.04435047        85.35128
3.978                 0.04431393        87.72311        0.9814086        176.3805        0.9814086        176.3805       0.04431392        85.03794
3.984                 0.04427669        87.48189        0.9813904        176.1032        0.9813903        176.1032       0.04427669        84.72452
3.99                  0.04423876        87.24076        0.9813724        175.8259        0.9813724        175.8259       0.04423876        84.41104
3.996                 0.04420014        86.99969        0.9813544        175.5486        0.9813544        175.5486       0.04420014        84.09744
4.002                 0.04416081        86.75872        0.9813365        175.2712        0.9813365        175.2712       0.04416081        83.78371
4.008                 0.04412079        86.51782        0.9813187        174.9939        0.9813187        174.9939       0.04412079        83.46989
4.014                 0.04408006        86.27699        0.9813011        174.7165        0.9813011        174.7165       0.04408006        83.15603
4.02                  0.04403863        86.03626        0.9812834        174.4392        0.9812834        174.4392       0.04403863        82.84205
4.026                  0.0439965        85.79559        0.9812659        174.1618        0.9812659        174.1618       0.04399649        82.52797
4.032                 0.04395365          85.555        0.9812484        173.8844        0.9812483        173.8844       0.04395365        82.21375
4.038                 0.04391011        85.31451        0.9812311         173.607         0.981231         173.607       0.04391011        81.89947
4.044                 0.04386586        85.07409         0.981214        173.3296         0.981214        173.3296       0.04386586        81.58509
4.05                  0.04382089        84.83374        0.9811968        173.0522        0.9811968        173.0522       0.04382089         81.2706
4.056                 0.04377522        84.59349        0.9811796        172.7747        0.9811796        172.7747       0.04377522          80.956
4.062                 0.04372883        84.35331        0.9811626        172.4973        0.9811626        172.4973       0.04372883        80.64132
4.068                 0.04368173        84.11322        0.9811458        172.2199        0.9811457        172.2199       0.04368173         80.3265
4.074                 0.04363391        83.87322         0.981129        171.9424         0.981129        171.9424       0.04363391        80.01162
4.08                  0.04358538         83.6333        0.9811121         171.665         0.981112         171.665       0.04358538        79.69662
4.086                 0.04353613        83.39348        0.9810956        171.3875        0.9810956        171.3875       0.04353613        79.38148
4.092                 0.04348616        83.15372         0.981079          171.11         0.981079          171.11       0.04348616        79.06627
4.098                 0.04343548        82.91408        0.9810626        170.8325        0.9810625        170.8325       0.04343548        78.75092
4.104                 0.04338407         82.6745        0.9810462         170.555        0.9810462         170.555       0.04338407         78.4355
4.11                  0.04333194        82.43504          0.98103        170.2775          0.98103        170.2775       0.04333194        78.11994
4.116                 0.04327909        82.19564        0.9810138             170        0.9810139             170       0.04327909        77.80429
4.122                  0.0432255        81.95635        0.9809977        169.7224        0.9809977        169.7224        0.0432255        77.48853
4.128                  0.0431712        81.71714        0.9809816        169.4449        0.9809816        169.4449        0.0431712        77.17266
4.134                 0.04311616        81.47805        0.9809657        169.1673        0.9809657        169.1673       0.04311616        76.85663
4.14                  0.04306041        81.23902        0.9809499        168.8898          0.98095        168.8898        0.0430604        76.54056
4.146                 0.04300392         81.0001        0.9809341        168.6122        0.9809341        168.6122       0.04300392        76.22432
4.152                 0.04294669        80.76129        0.9809184        168.3346        0.9809184        168.3346       0.04294669        75.90797
4.158                 0.04288874        80.52254        0.9809028         168.057        0.9809027         168.057       0.04288874        75.59153
4.164                 0.04283006        80.28392        0.9808873        167.7794        0.9808873        167.7794       0.04283006        75.27495
4.17                  0.04277063        80.04539        0.9808719        167.5018        0.9808719        167.5018       0.04277063        74.95825
4.176                 0.04271048        79.80697        0.9808565        167.2242        0.9808564        167.2242       0.04271048        74.64141
4.182                 0.04264959        79.56863        0.9808413        166.9465        0.9808413        166.9465       0.04264959        74.32446
4.188                 0.04258796        79.33042        0.9808262        166.6689        0.9808262        166.6689       0.04258796         74.0074
4.194                  0.0425256        79.09229        0.9808111        166.3912        0.9808112        166.3912        0.0425256        73.69021
4.2                   0.04246248        78.85427         0.980796        166.1136         0.980796        166.1136       0.04246248        73.37291
4.206                 0.04239864        78.61636        0.9807811        165.8359        0.9807812        165.8359       0.04239864        73.05544
4.212                 0.04233405        78.37855        0.9807662        165.5582        0.9807662        165.5582       0.04233405        72.73788
4.218                 0.04226872        78.14086        0.9807514        165.2805        0.9807514        165.2805       0.04226872        72.42018
4.224                 0.04220265        77.90326        0.9807368        165.0028        0.9807368        165.0028       0.04220265        72.10233
4.23                  0.04213583        77.66579        0.9807222        164.7251        0.9807223        164.7251       0.04213583        71.78434
4.236                 0.04206826        77.42843        0.9807077        164.4473        0.9807076        164.4473       0.04206826        71.46624
4.242                 0.04199995        77.19117        0.9806933        164.1696        0.9806934        164.1696       0.04199995        71.14799
4.248                 0.04193089        76.95403        0.9806789        163.8918        0.9806788        163.8918        0.0419309        70.82962
4.254                 0.04186109        76.71699        0.9806646        163.6141        0.9806646        163.6141       0.04186109        70.51111
4.26                  0.04179053         76.4801        0.9806504        163.3363        0.9806503        163.3363       0.04179053        70.19247
4.266                 0.04171923        76.24331        0.9806363        163.0585        0.9806362        163.0585       0.04171923        69.87366
4.272                 0.04164717        76.00664        0.9806222        162.7807        0.9806222        162.7807       0.04164717        69.55475
4.278                 0.04157436         75.7701        0.9806083        162.5029        0.9806084        162.5029       0.04157436        69.23564
4.284                  0.0415008        75.53368        0.9805944        162.2251        0.9805945        162.2251        0.0415008        68.91643
4.29                  0.04142648        75.29738        0.9805806        161.9472        0.9805807        161.9472       0.04142648        68.59702
4.296                 0.04135141        75.06119        0.9805668        161.6694        0.9805667        161.6694       0.04135141        68.27753
4.302                 0.04127559        74.82514        0.9805532        161.3915        0.9805533        161.3915       0.04127559        67.95785
4.308                   0.041199        74.58923        0.9805397        161.1136        0.9805397        161.1136         0.041199        67.63801
4.314                 0.04112166        74.35345        0.9805261        160.8357        0.9805262        160.8357       0.04112166        67.31803
4.32                  0.04104357        74.11778        0.9805126        160.5578        0.9805126        160.5578       0.04104357        66.99791
4.326                 0.04096471        73.88227        0.9804993        160.2799        0.9804993        160.2799       0.04096471         66.6776
4.332                  0.0408851        73.64688         0.980486         160.002        0.9804861         160.002        0.0408851        66.35715
4.338                 0.04080472        73.41162        0.9804728        159.7241        0.9804728        159.7241       0.04080472        66.03652
4.344                 0.04072358        73.17653        0.9804596        159.4461        0.9804596        159.4461       0.04072359        65.71572
4.35                  0.04064169        72.94154        0.9804466        159.1682        0.9804467        159.1682       0.04064169        65.39478
4.356                 0.04055903        72.70672        0.9804336        158.8902        0.9804336        158.8902       0.04055903        65.07368
4.362                  0.0404756        72.47203        0.9804207        158.6122        0.9804208        158.6122        0.0404756        64.75239
4.368                 0.04039141        72.23751        0.9804077        158.3342        0.9804077        158.3342       0.04039142         64.4309
4.374                 0.04030646        72.00311         0.980395        158.0562         0.980395        158.0562       0.04030646        64.10931
4.38                  0.04022075        71.76888        0.9803823        157.7782        0.9803823        157.7782       0.04022075        63.78753
4.386                 0.04013427        71.53479        0.9803697        157.5001        0.9803697        157.5001       0.04013427         63.4655
4.392                 0.04004701        71.30087        0.9803571        157.2221        0.9803572        157.2221       0.04004701        63.14333
4.398                   0.039959        71.06709        0.9803446        156.9441        0.9803446        156.9441         0.039959        62.82103
4.404                 0.03987022        70.83347        0.9803322         156.666        0.9803323         156.666       0.03987022        62.49851
4.41                  0.03978067        70.60002        0.9803198        156.3879        0.9803199        156.3879       0.03978067        62.17577
4.416                 0.03969035        70.36675        0.9803074        156.1098        0.9803074        156.1098       0.03969035        61.85286
4.422                 0.03959926        70.13362        0.9802952        155.8317        0.9802953        155.8317       0.03959926        61.52977
4.428                  0.0395074        69.90066        0.9802831        155.5536        0.9802831        155.5536        0.0395074        61.20648
4.434                 0.03941477        69.66787        0.9802708        155.2754        0.9802708        155.2754       0.03941477        60.88299
4.44                  0.03932137        69.43526        0.9802588        154.9973        0.9802588        154.9973       0.03932137         60.5593
4.446                  0.0392272        69.20283        0.9802468        154.7191        0.9802467        154.7191        0.0392272        60.23542
4.452                 0.03913226        68.97058        0.9802349        154.4409        0.9802348        154.4409       0.03913226        59.91131
4.458                 0.03903655        68.73849        0.9802231        154.1628        0.9802231        154.1628       0.03903655        59.58704
4.464                 0.03894007        68.50659        0.9802113        153.8846        0.9802114        153.8846       0.03894006        59.26255
4.47                   0.0388428        68.27488        0.9801996        153.6063        0.9801997        153.6063        0.0388428        58.93779
4.476                 0.03874477        68.04337        0.9801879        153.3281        0.9801881        153.3281       0.03874477         58.6129
4.482                 0.03864596        67.81204        0.9801762        153.0499        0.9801762        153.0499       0.03864596        58.28772
4.488                 0.03854638         67.5809        0.9801647        152.7716        0.9801647        152.7716       0.03854639        57.96233
4.494                 0.03844603        67.34996        0.9801532        152.4933        0.9801533        152.4933       0.03844603        57.63672
4.5                    0.0383449        67.11923        0.9801417        152.2151        0.9801417        152.2151        0.0383449        57.31091
4.506                   0.038243        66.88869        0.9801304        151.9368        0.9801304        151.9368         0.038243        56.98484
4.512                 0.03814033        66.65837        0.9801189        151.6585        0.9801189        151.6585       0.03814033        56.65856
4.518                 0.03803687        66.42826        0.9801077        151.3801        0.9801077        151.3801       0.03803687        56.33203
4.524                 0.03793264        66.19835        0.9800965        151.1018        0.9800965        151.1018       0.03793264        56.00525
4.53                  0.03782763        65.96866        0.9800854        150.8235        0.9800854        150.8235       0.03782763        55.67826
4.536                 0.03772185        65.73919        0.9800743        150.5451        0.9800743        150.5451       0.03772185        55.35099
4.542                 0.03761529        65.50995        0.9800633        150.2667        0.9800634        150.2667       0.03761529        55.02346
4.548                 0.03750795        65.28093        0.9800522        149.9883        0.9800523        149.9883       0.03750796        54.69567
4.554                 0.03739984        65.05214        0.9800412        149.7099        0.9800412        149.7099       0.03739985        54.36769
4.56                  0.03729095        64.82359        0.9800303        149.4315        0.9800302        149.4315       0.03729095         54.0394
4.566                 0.03718129        64.59527        0.9800196        149.1531        0.9800197        149.1531       0.03718129        53.71084
4.572                 0.03707084        64.36719        0.9800087        148.8746        0.9800088        148.8746       0.03707084        53.38202
4.578                 0.03695962        64.13936         0.979998        148.5961        0.9799981        148.5962       0.03695962        53.05294
4.584                 0.03684763        63.91178        0.9799873        148.3177        0.9799874        148.3177       0.03684763        52.72355
4.59                  0.03673485        63.68446        0.9799765        148.0392        0.9799765        148.0392       0.03673485        52.39387
4.596                  0.0366213         63.4574        0.9799659        147.7607        0.9799659        147.7607        0.0366213        52.06393
4.602                 0.03650697        63.23059        0.9799555        147.4821        0.9799556        147.4821       0.03650698        51.73369
4.608                 0.03639187        63.00405        0.9799449        147.2036         0.979945        147.2036       0.03639187        51.40316
4.614                 0.03627598        62.77778        0.9799343        146.9251        0.9799343        146.9251       0.03627598        51.07234
4.62                  0.03615932        62.55178        0.9799238        146.6465        0.9799238        146.6465       0.03615932        50.74121
4.626                 0.03604188        62.32607        0.9799136        146.3679        0.9799136        146.3679       0.03604188        50.40977
4.632                 0.03592367        62.10064        0.9799031        146.0893        0.9799032        146.0893       0.03592367          50.078
4.638                 0.03580467        61.87551         0.979893        145.8107        0.9798931        145.8107       0.03580467        49.74592
4.644                 0.03568491        61.65066        0.9798827        145.5321        0.9798828        145.5321       0.03568491        49.41353
4.65                  0.03556436        61.42612        0.9798724        145.2535        0.9798724        145.2535       0.03556436        49.08082
4.656                 0.03544304        61.20188        0.9798623        144.9748        0.9798624        144.9748       0.03544304        48.74775
4.662                 0.03532094        60.97794        0.9798521        144.6961        0.9798522        144.6961       0.03532094        48.41433
4.668                 0.03519807        60.75434        0.9798419        144.4174        0.9798419        144.4174       0.03519807        48.08057
4.674                 0.03507442        60.53104         0.979832        144.1388        0.9798321        144.1388       0.03507442        47.74649
4.68                  0.03494999        60.30809        0.9798218          143.86        0.9798219          143.86       0.03494999        47.41199
4.686                 0.03482479        60.08545        0.9798118        143.5813        0.9798119        143.5813       0.03482479        47.07717
4.692                 0.03469881        59.86315        0.9798019        143.3026         0.979802        143.3026       0.03469882        46.74202
4.698                 0.03457207         59.6412        0.9797919        143.0238        0.9797919        143.0238       0.03457206        46.40643
4.704                 0.03444454        59.41962         0.979782         142.745         0.979782         142.745       0.03444454        46.07045
4.71                  0.03431625        59.19838         0.979772        142.4663         0.979772        142.4663       0.03431624        45.73413
4.716                 0.03418717         58.9775        0.9797622        142.1874        0.9797622        142.1874       0.03418717        45.39739
4.722                 0.03405733          58.757        0.9797524        141.9086        0.9797523        141.9086       0.03405733        45.06028
4.728                 0.03392671        58.53687        0.9797425        141.6298        0.9797425        141.6298       0.03392671        44.72273
4.734                 0.03379532        58.31713        0.9797329         141.351         0.979733         141.351       0.03379532        44.38479
4.74                  0.03366316        58.09779        0.9797231        141.0721        0.9797231        141.0721       0.03366316        44.04637
4.746                 0.03353023        57.87884        0.9797134        140.7932        0.9797134        140.7932       0.03353023        43.70759
4.752                 0.03339653        57.66029        0.9797038        140.5143        0.9797039        140.5143       0.03339653        43.36835
4.758                 0.03326206        57.44216        0.9796941        140.2354        0.9796942        140.2354       0.03326206        43.02864
4.764                 0.03312682        57.22445        0.9796845        139.9565        0.9796846        139.9565       0.03312682        42.68851
4.77                  0.03299081        57.00718        0.9796748        139.6775        0.9796749        139.6775       0.03299081        42.34788
4.776                 0.03285404        56.79034        0.9796651        139.3986         0.979665        139.3986       0.03285404         42.0068
4.782                  0.0327165        56.57395        0.9796556        139.1196        0.9796555        139.1196       0.03271649        41.66525
4.788                 0.03257819        56.35801         0.979646        138.8406        0.9796459        138.8406       0.03257819        41.32318
4.794                 0.03243911        56.14255        0.9796365        138.5616        0.9796365        138.5616       0.03243911        40.98065
4.8                   0.03229927        55.92756        0.9796269        138.2826        0.9796271        138.2826       0.03229927        40.63758
4.806                 0.03215867        55.71304        0.9796175        138.0035        0.9796176        138.0035       0.03215867        40.29403
4.812                  0.0320173        55.49903         0.979608        137.7245        0.9796081        137.7245        0.0320173        39.94994
4.818                 0.03187517        55.28551        0.9795985        137.4454        0.9795986        137.4454       0.03187517        39.60531
4.824                 0.03173228         55.0725         0.979589        137.1663         0.979589        137.1663       0.03173228        39.26015
4.83                  0.03158863        54.86003        0.9795797        136.8872        0.9795798        136.8872       0.03158863        38.91445
4.836                 0.03144421        54.64808        0.9795703        136.6081        0.9795704        136.6081       0.03144422        38.56817
4.842                 0.03129905        54.43668        0.9795606         136.329        0.9795606         136.329       0.03129905        38.22127
4.848                 0.03115312        54.22584        0.9795514        136.0498        0.9795515        136.0498       0.03115312        37.87383
4.854                 0.03100644        54.01556        0.9795418        135.7707        0.9795418        135.7707       0.03100644        37.52578
4.86                    0.030859        53.80586        0.9795323        135.4915        0.9795323        135.4915       0.03085899        37.17711
4.866                  0.0307108        53.59676         0.979523        135.2123         0.979523        135.2123        0.0307108        36.82782
4.872                 0.03056185        53.38826        0.9795136        134.9331        0.9795136        134.9331       0.03056185        36.47789
4.878                 0.03041215        53.18038        0.9795042        134.6538        0.9795042        134.6538       0.03041215        36.12728
4.884                 0.03026171        52.97312        0.9794949        134.3746         0.979495        134.3746       0.03026171        35.77609
4.89                  0.03011051        52.76651        0.9794855        134.0953        0.9794855        134.0953       0.03011051        35.42417
4.896                 0.02995856        52.56056        0.9794762        133.8161        0.9794763        133.8161       0.02995856        35.07157
4.902                 0.02980587        52.35528        0.9794668        133.5368        0.9794668        133.5368       0.02980587        34.71824
4.908                 0.02965243        52.15068        0.9794573        133.2574        0.9794572        133.2574       0.02965243         34.3642
4.914                 0.02949824        51.94679        0.9794479        132.9781        0.9794479        132.9781       0.02949824        34.00944
4.92                  0.02934332        51.74361        0.9794385        132.6988        0.9794385        132.6988       0.02934332         33.6539
4.926                 0.02918765        51.54116        0.9794291        132.4194        0.9794291        132.4194       0.02918765        33.29764
4.932                 0.02903124        51.33946        0.9794197          132.14        0.9794198          132.14       0.02903124        32.94057
4.938                  0.0288741        51.13853        0.9794104        131.8606        0.9794104        131.8606       0.02887409        32.58274
4.944                 0.02871621        50.93838        0.9794009        131.5812        0.9794009        131.5812       0.02871621        32.22402
4.95                   0.0285576        50.73904        0.9793915        131.3018        0.9793915        131.3018        0.0285576        31.86454
4.956                 0.02839825        50.54051        0.9793821        131.0223         0.979382        131.0224       0.02839825        31.50419
4.962                 0.02823817        50.34282        0.9793725        130.7429        0.9793727        130.7429       0.02823816        31.14291
4.968                 0.02807735        50.14599        0.9793632        130.4634        0.9793632        130.4634       0.02807735         30.7808
4.974                 0.02791582        49.95003        0.9793537        130.1839        0.9793538        130.1839       0.02791581        30.41777
4.98                  0.02775355        49.75497        0.9793441        129.9044         0.979344        129.9044       0.02775355        30.05381
4.986                 0.02759056        49.56083        0.9793347        129.6249        0.9793348        129.6249       0.02759056         29.6889
4.992                 0.02742685        49.36764        0.9793251        129.3453        0.9793251        129.3453       0.02742685        29.32296
4.998                 0.02726242         49.1754        0.9793154        129.0658        0.9793154        129.0657       0.02726241         28.9561
5.004                 0.02709727        48.98415        0.9793061        128.7862        0.9793061        128.7862       0.02709727        28.58819
5.01                   0.0269314        48.79392        0.9792965        128.5066        0.9792964        128.5066        0.0269314        28.21922
5.016                 0.02676482        48.60471        0.9792868        128.2269        0.9792869        128.2269       0.02676482        27.84918
5.022                 0.02659753        48.41657        0.9792771        127.9473        0.9792771        127.9473       0.02659753        27.47807
5.028                 0.02642953        48.22952        0.9792675        127.6677        0.9792675        127.6677       0.02642953        27.10581
5.034                 0.02626082        48.04358        0.9792579         127.388         0.979258         127.388       0.02626082        26.73243
5.04                  0.02609141        47.85878        0.9792482        127.1083        0.9792482        127.1083       0.02609141        26.35786
5.046                  0.0259213        47.67515        0.9792383        126.8286        0.9792383        126.8286        0.0259213        25.98208
5.052                 0.02575048        47.49273        0.9792287        126.5489        0.9792287        126.5489       0.02575048        25.60508
5.058                 0.02557898        47.31153        0.9792189        126.2692         0.979219        126.2692       0.02557898        25.22681
5.064                 0.02540677         47.1316         0.979209        125.9894        0.9792091        125.9894       0.02540677        24.84722
5.07                  0.02523387        46.95297        0.9791991        125.7096         0.979199        125.7096       0.02523387        24.46632
5.076                 0.02506029        46.77566        0.9791892        125.4299        0.9791891        125.4298       0.02506029        24.08405
5.082                 0.02488602        46.59972        0.9791792        125.1501        0.9791792        125.1501       0.02488602         23.7004
5.088                 0.02471106        46.42516        0.9791693        124.8702        0.9791693        124.8702       0.02471106        23.31531
5.094                 0.02453543        46.25209        0.9791593        124.5904        0.9791593        124.5904       0.02453543         22.9287
5.1                   0.02435912        46.08048        0.9791493        124.3105        0.9791492        124.3105       0.02435912        22.54056
5.106                 0.02418214        45.91036        0.9791392        124.0307        0.9791391        124.0307       0.02418213        22.15099
5.112                 0.02400448        45.74182        0.9791291        123.7508         0.979129        123.7508       0.02400448        21.75973
5.118                 0.02382616        45.57489        0.9791189        123.4709        0.9791188        123.4709       0.02382616        21.36685
5.124                 0.02364717        45.40957        0.9791087        123.1909        0.9791086        123.1909       0.02364717        20.97232
5.13                  0.02346753        45.24597        0.9790984         122.911        0.9790984         122.911       0.02346753          20.576
5.136                 0.02328722        45.08412        0.9790882         122.631        0.9790882         122.631       0.02328722        20.17793
5.142                 0.02310627        44.92408        0.9790779         122.351        0.9790778         122.351       0.02310627        19.77802
5.148                 0.02292466        44.76584        0.9790675        122.0711        0.9790675        122.0711       0.02292467        19.37629
5.154                 0.02274242        44.60954         0.979057        121.7911         0.979057        121.7911       0.02274241        18.97257
5.16                  0.02255953        44.45515        0.9790465         121.511        0.9790465         121.511       0.02255953        18.56688
5.166                   0.022376        44.30275        0.9790359         121.231        0.9790359         121.231         0.022376         18.1592
5.172                 0.02219184        44.15249        0.9790254        120.9509        0.9790253        120.9509       0.02219184        17.74934
5.178                 0.02200706        44.00433        0.9790147        120.6708        0.9790146        120.6708       0.02200706        17.33731
5.184                 0.02182165        43.85838         0.979004        120.3907        0.9790041        120.3907       0.02182164        16.92308
5.19                  0.02163562        43.71467        0.9789932        120.1106        0.9789932        120.1106       0.02163562        16.50655
5.196                 0.02144897        43.57326        0.9789823        119.8305        0.9789823        119.8305       0.02144897        16.08767
5.202                 0.02126172        43.43433        0.9789715        119.5503        0.9789715        119.5503       0.02126172         15.6663
5.208                 0.02107387        43.29781        0.9789605        119.2701        0.9789605        119.2701       0.02107387        15.24248
5.214                 0.02088541        43.16391        0.9789495          118.99        0.9789495          118.99       0.02088541        14.81602
5.22                  0.02069637        43.03261        0.9789385        118.7098        0.9789384        118.7098       0.02069637        14.38692
5.226                 0.02050673        42.90409        0.9789273        118.4295        0.9789273        118.4295       0.02050673        13.95498
5.232                 0.02031652        42.77831        0.9789161        118.1493        0.9789161        118.1493       0.02031651         13.5203
5.238                 0.02012573        42.65548        0.9789049         117.869        0.9789048         117.869       0.02012573        13.08262
5.244                 0.01993437        42.53567        0.9788935        117.5888        0.9788935        117.5888       0.01993437        12.64186
5.25                  0.01974244        42.41893         0.978882        117.3085         0.978882        117.3085       0.01974244        12.19798
5.256                 0.01954997        42.30541        0.9788705        117.0282        0.9788706        117.0282       0.01954997        11.75093
5.262                 0.01935694        42.19523         0.978859        116.7478         0.978859        116.7478       0.01935694        11.30043
5.268                 0.01916337        42.08843        0.9788473        116.4675        0.9788473        116.4675       0.01916337        10.84656
5.274                 0.01896926        41.98524        0.9788356        116.1871        0.9788355        116.1871       0.01896926        10.38902
5.28                  0.01877463        41.88571        0.9788238        115.9067        0.9788237        115.9067       0.01877463        9.927759
5.286                 0.01857948        41.78998        0.9788119        115.6263        0.9788119        115.6263       0.01857948        9.462705
5.292                 0.01838382        41.69818           0.9788        115.3459           0.9788        115.3459       0.01838382        8.993661
5.298                 0.01818766        41.61051        0.9787878        115.0655        0.9787877        115.0655       0.01818766        8.520501
5.304                   0.017991        41.52705        0.9787757        114.7851        0.9787757        114.7851         0.017991        8.043061
5.31                  0.01779386        41.44798        0.9787636        114.5046        0.9787636        114.5046       0.01779386        7.561182
5.316                 0.01759625        41.37347        0.9787513        114.2241        0.9787513        114.2241       0.01759625        7.074683
5.322                 0.01739817         41.3037        0.9787389        113.9436        0.9787389        113.9436       0.01739817        6.583449
5.328                 0.01719964        41.23886        0.9787264        113.6631        0.9787264        113.6631       0.01719964        6.087279
5.334                 0.01700066        41.17909        0.9787137        113.3825        0.9787137        113.3825       0.01700066        5.585945
5.34                  0.01680126        41.12464        0.9787011         113.102        0.9787011         113.102       0.01680126         5.07928
5.346                 0.01660143        41.07568        0.9786884        112.8214        0.9786885        112.8214       0.01660143        4.567122
5.352                  0.0164012        41.03251        0.9786755        112.5408        0.9786755        112.5408        0.0164012        4.049069
5.358                 0.01620057        40.99524        0.9786626        112.2602        0.9786626        112.2602       0.01620057        3.525115
5.364                 0.01599957        40.96421        0.9786495        111.9796        0.9786496        111.9796       0.01599957        2.994923
5.37                  0.01579819        40.93965        0.9786364        111.6989        0.9786364        111.6989       0.01579819        2.458211
5.376                 0.01559647        40.92178        0.9786231        111.4183        0.9786231        111.4183       0.01559647        1.914743
5.382                 0.01539441        40.91099        0.9786097        111.1376        0.9786098        111.1376       0.01539441        1.364149
5.388                 0.01519203        40.90747        0.9785963        110.8569        0.9785963        110.8569       0.01519203       0.8062845
5.394                 0.01498935        40.91162        0.9785828        110.5762        0.9785828        110.5762       0.01498935       0.2406892
5.4                   0.01478639        40.92375        0.9785691        110.2954        0.9785691        110.2954       0.01478639      -0.3328815
5.406                 0.01458316        40.94418        0.9785553        110.0147        0.9785553        110.0147       0.01458316      -0.9148153
5.412                 0.01437969        40.97333        0.9785414        109.7339        0.9785413        109.7339       0.01437969       -1.505513
5.418                   0.014176        41.01155        0.9785274        109.4531        0.9785273        109.4531         0.014176       -2.105287
5.424                  0.0139721        41.05931        0.9785133        109.1723        0.9785132        109.1723        0.0139721       -2.714648
5.43                  0.01376803        41.11707        0.9784991        108.8915        0.9784991        108.8915       0.01376803       -3.334066
5.436                 0.01356381        41.18521        0.9784848        108.6107        0.9784847        108.6107       0.01356381       -3.963868
5.442                 0.01335946         41.2643        0.9784703        108.3298        0.9784702        108.3298       0.01335945       -4.604672
5.448                 0.01315501        41.35487        0.9784557         108.049        0.9784557         108.049       0.01315501       -5.256953
5.454                  0.0129505        41.45743         0.978441        107.7681         0.978441        107.7681        0.0129505        -5.92129
5.46                  0.01274595        41.57261        0.9784263        107.4871        0.9784263        107.4871       0.01274595       -6.598349
5.466                 0.01254139        41.70106        0.9784113        107.2062        0.9784112        107.2062       0.01254139       -7.288618
5.472                 0.01233688        41.84344        0.9783962        106.9253        0.9783962        106.9253       0.01233687       -7.992876
5.478                 0.01213243        42.00045         0.978381        106.6443         0.978381        106.6443       0.01213243       -8.711825
5.484                  0.0119281        42.17288        0.9783657        106.3633        0.9783657        106.3633       0.01192809       -9.446183
5.49                  0.01172392        42.36154        0.9783503        106.0824        0.9783503        106.0824       0.01172392       -10.19683
5.496                 0.01151994        42.56728        0.9783346        105.8013        0.9783347        105.8013       0.01151994       -10.96461
5.502                 0.01131621        42.79106         0.978319        105.5203         0.978319        105.5203       0.01131621       -11.75044
5.508                 0.01111279        43.03383        0.9783032        105.2393        0.9783032        105.2393       0.01111279        -12.5553
5.514                 0.01090973        43.29666        0.9782872        104.9582        0.9782871        104.9582       0.01090973       -13.38023
5.52                  0.01070709        43.58069        0.9782711        104.6771        0.9782711        104.6771       0.01070709       -14.22641
5.526                 0.01050494         43.8871        0.9782548         104.396        0.9782548         104.396       0.01050494       -15.09503
5.532                 0.01030335         44.2172        0.9782384        104.1149        0.9782384        104.1149       0.01030335       -15.98734
5.538                 0.01010239        44.57234        0.9782219        103.8338        0.9782219        103.8338       0.01010238       -16.90474
5.544                 0.00990214        44.95401        0.9782053        103.5526        0.9782054        103.5526      0.009902139       -17.84872
5.55                 0.009702697        45.36375        0.9781885        103.2715        0.9781884        103.2715      0.009702697       -18.82078
5.556                0.009504152        45.80327        0.9781715        102.9903        0.9781714        102.9903      0.009504151       -19.82267
5.562                0.009306607        46.27435        0.9781544        102.7091        0.9781544        102.7091      0.009306606       -20.85617
5.568                0.009110173        46.77891        0.9781371        102.4279        0.9781371        102.4279      0.009110173       -21.92316
5.574                0.008914971          47.319        0.9781197        102.1467        0.9781197        102.1467      0.008914971       -23.02567
5.58                 0.008721131        47.89679        0.9781023        101.8654        0.9781023        101.8654       0.00872113       -24.16595
5.586                0.008528796        48.51461        0.9780845        101.5841        0.9780845        101.5841      0.008528796       -25.34635
5.592                0.008338117        49.17495        0.9780666        101.3029        0.9780665        101.3029      0.008338117       -26.56923
5.598                0.008149262        49.88043        0.9780486        101.0216        0.9780486        101.0216      0.008149262        -27.8373
5.604                 0.00796241        50.63385        0.9780305        100.7403        0.9780305        100.7403      0.007962411       -29.15331
5.61                  0.00777776        51.43816        0.9780122        100.4589        0.9780121        100.4589      0.007777759       -30.52032
5.616                0.007595524        52.29647        0.9779937        100.1776        0.9779937        100.1776      0.007595523       -31.94133
5.622                0.007415934        53.21205         0.977975         99.8962        0.9779749         99.8962      0.007415934       -33.41965
5.628                0.007239243         54.1883        0.9779562        99.61479        0.9779561        99.61479      0.007239243       -34.95871
5.634                0.007065722        55.22878        0.9779372        99.33342        0.9779371        99.33342      0.007065722       -36.56194
5.64                 0.006895671        56.33713        0.9779181        99.05199        0.9779181        99.05199      0.006895671       -38.23315
5.646                 0.00672941        57.51707        0.9778988        98.77055        0.9778987        98.77056       0.00672941       -39.97596
5.652                0.006567285        58.77237        0.9778793        98.48912        0.9778793        98.48913      0.006567285       -41.79412
5.658                 0.00640967        60.10676        0.9778597        98.20766        0.9778597        98.20767       0.00640967       -43.69144
5.664                0.006256968        61.52388        0.9778399        97.92618        0.9778398        97.92618      0.006256968       -45.67153
5.67                 0.006109611        63.02716        0.9778199        97.64467        0.9778199        97.64467       0.00610961       -47.73784
5.676                0.005968056        64.61977        0.9777997        97.36318        0.9777997        97.36318      0.005968056       -49.89341
5.682                 0.00583279        66.30442        0.9777794        97.08164        0.9777793        97.08164       0.00583279       -52.14115
5.688                0.005704328        68.08328        0.9777589         96.8001        0.9777588         96.8001      0.005704327       -54.48308
5.694                0.005583202        69.95768        0.9777383        96.51856        0.9777383        96.51856      0.005583202       -56.92056
5.7                  0.005469971        71.92813        0.9777174        96.23696        0.9777174        96.23696       0.00546997       -59.45421
5.706                  0.0053652        73.99393        0.9776963        95.95537        0.9776964        95.95537      0.005365199        -62.0832
5.712                0.005269462        76.15309         0.977675        95.67375         0.977675        95.67375      0.005269462       -64.80561
5.718                0.005183328        78.40211        0.9776537        95.39215        0.9776536        95.39215      0.005183328       -67.61782
5.724                0.005107354         80.7359         0.977632         95.1105         0.977632         95.1105      0.005107354       -70.51491
5.73                 0.005042068        83.14748        0.9776102        94.82885        0.9776102        94.82885      0.005042067       -73.48978
5.736                0.004987958        85.62829        0.9775883        94.54718        0.9775883        94.54718      0.004987958       -76.53395
5.742                0.004945465        88.16786        0.9775661        94.26547        0.9775661        94.26547      0.004945464       -79.63693
5.748                0.004914956        90.75432        0.9775437        93.98379        0.9775436        93.98379      0.004914956       -82.78674
5.754                0.004896725        93.37435        0.9775211        93.70206        0.9775211        93.70206      0.004896725       -85.97023
5.76                  0.00489098         96.0137        0.9774984         93.4203        0.9774983         93.4203       0.00489098        -89.1731
5.766                0.004897831         98.6575        0.9774755        93.13857        0.9774755        93.13857       0.00489783       -92.38037
5.772                0.004917292        101.2908        0.9774522        92.85681        0.9774522        92.85681      0.004917292       -95.57714
5.778                0.004949281        103.8988        0.9774289        92.57503        0.9774289        92.57503      0.004949281       -98.74878
5.784                0.004993621        106.4677        0.9774055        92.29324        0.9774055        92.29324      0.004993621       -101.8813
5.79                 0.005050049        108.9847        0.9773817        92.01143        0.9773816        92.01143      0.005050049       -104.9619
5.796                0.005118229        111.4385        0.9773577        91.72961        0.9773577        91.72961      0.005118229       -107.9792
5.802                0.005197756        113.8192        0.9773336        91.44777        0.9773334        91.44777      0.005197756       -110.9236
5.808                0.005288176         116.119        0.9773093         91.1659        0.9773093         91.1659      0.005288176       -113.7872
5.814                0.005388998        118.3316        0.9772846        90.88404        0.9772846        90.88404      0.005388999       -116.5636
5.82                 0.005499704        120.4527        0.9772599        90.60217        0.9772598        90.60217      0.005499705       -119.2484
5.826                0.005619763        122.4793         0.977235        90.32024        0.9772349        90.32025      0.005619763       -121.8388
5.832                0.005748639        124.4099        0.9772097        90.03835        0.9772097        90.03835      0.005748639       -124.3332
5.838                0.005885802        126.2444        0.9771843         89.7564        0.9771842         89.7564      0.005885802       -126.7317
5.844                0.006030732        127.9837        0.9771587        89.47448        0.9771586        89.47448      0.006030732       -129.0347
5.85                 0.006182929        129.6293        0.9771328        89.19252        0.9771328        89.19253       0.00618293       -131.2442
5.856                0.006341915        131.1837        0.9771067        88.91055        0.9771067        88.91055      0.006341915       -133.3626
5.862                0.006507231        132.6499        0.9770804        88.62857        0.9770804        88.62857      0.006507232       -135.3928
5.868                0.006678449        134.0311         0.977054        88.34654         0.977054        88.34654      0.006678448        -137.338
5.874                0.006855163        135.3308        0.9770273        88.06453        0.9770273        88.06453      0.006855164       -139.2017
5.88                 0.007036997        136.5527        0.9770003        87.78253        0.9770003        87.78253      0.007036998       -140.9876
5.886                  0.0072236        137.7006        0.9769732        87.50047        0.9769733        87.50047      0.007223601       -142.6996
5.892                0.007414644        138.7782        0.9769458        87.21842        0.9769458        87.21842      0.007414644       -144.3413
5.898                0.007609826        139.7892        0.9769182        86.93635        0.9769181        86.93635      0.007609826       -145.9165
5.904                0.007808868        140.7372        0.9768904        86.65426        0.9768904        86.65426      0.007808868       -147.4287
5.91                 0.008011511        141.6258        0.9768622        86.37218        0.9768622        86.37218       0.00801151       -148.8815
5.916                0.008217517        142.4583        0.9768341        86.09006        0.9768341        86.09006      0.008217517       -150.2782
5.922                0.008426665        143.2378        0.9768055        85.80795        0.9768054        85.80795      0.008426665       -151.6219
5.928                0.008638754        143.9675        0.9767766        85.52579        0.9767765        85.52579      0.008638755       -152.9159
5.934                0.008853596        144.6502        0.9767477        85.24364        0.9767476        85.24364      0.008853596       -154.1629
5.94                 0.009071019        145.2887        0.9767184         84.9615        0.9767183         84.9615      0.009071019       -155.3657
5.946                0.009290863        145.8854         0.976689         84.6793        0.9766889         84.6793      0.009290863       -156.5268
5.952                0.009512981         146.443        0.9766593        84.39712        0.9766592        84.39712      0.009512981       -157.6487
5.958                0.009737241        146.9635        0.9766294        84.11491        0.9766294        84.11491      0.009737242       -158.7337
5.964                0.009963513        147.4492        0.9765991         83.8327         0.976599        83.83271      0.009963513       -159.7838
5.97                  0.01019169         147.902        0.9765688        83.55046        0.9765687        83.55046       0.01019168        -160.801
5.976                 0.01042165        148.3238        0.9765381        83.26823        0.9765381        83.26823       0.01042165       -161.7873
5.982                  0.0106533        148.7163        0.9765071        82.98597        0.9765071        82.98599        0.0106533       -162.7444
5.988                 0.01088655        149.0812        0.9764759        82.70371         0.976476        82.70371       0.01088655       -163.6738
5.994                 0.01112132        149.4201        0.9764445        82.42143        0.9764445        82.42143       0.01112132       -164.5772
6                     0.01135752        149.7343        0.9764129        82.13913        0.9764129        82.13913       0.01135752        -165.456
